Parameters to Generate KPOINTS (Don't Edit This Line):   0.040  0.040    4   99   3  42  36  21
   103
Reciprocal lattice
    0.00000000000000    0.00000000000000    0.00000000000000     1
    0.25000000000000    0.00000000000000    0.00000000000000     6
    0.50000000000000    0.00000000000000    0.00000000000000     3
    0.25000000000000    0.25000000000000    0.00000000000000     6
   -0.00000000001000   -0.00000000001000    0.00000000000000     0
   -0.02439024391220   -0.02439024391220    0.00000000000000     0
   -0.04878048781439   -0.04878048781439    0.00000000000000     0
   -0.07317073171659   -0.07317073171659    0.00000000000000     0
   -0.09756097561878   -0.09756097561878    0.00000000000000     0
   -0.12195121952098   -0.12195121952098    0.00000000000000     0
   -0.14634146342317   -0.14634146342317    0.00000000000000     0
   -0.17073170732537   -0.17073170732537    0.00000000000000     0
   -0.19512195122756   -0.19512195122756    0.00000000000000     0
   -0.21951219512976   -0.21951219512976    0.00000000000000     0
   -0.24390243903195   -0.24390243903195    0.00000000000000     0
   -0.26829268293415   -0.26829268293415    0.00000000000000     0
   -0.29268292683634   -0.29268292683634    0.00000000000000     0
   -0.31707317073854   -0.31707317073854    0.00000000000000     0
   -0.34146341464073   -0.34146341464073    0.00000000000000     0
   -0.36585365854293   -0.36585365854293    0.00000000000000     0
   -0.39024390244512   -0.39024390244512    0.00000000000000     0
   -0.41463414634732   -0.41463414634732    0.00000000000000     0
   -0.43902439024951   -0.43902439024951    0.00000000000000     0
   -0.46341463415171   -0.46341463415171    0.00000000000000     0
   -0.48780487805390   -0.48780487805390    0.00000000000000     0
    0.48780487804390    0.48780487804390    0.00000000000000     0
    0.46341463414171    0.46341463414171    0.00000000000000     0
    0.43902439023951    0.43902439023951    0.00000000000000     0
    0.41463414633732    0.41463414633732    0.00000000000000     0
    0.39024390243512    0.39024390243512    0.00000000000000     0
    0.36585365853293    0.36585365853293    0.00000000000000     0
    0.34146341463073    0.34146341463073    0.00000000000000     0
    0.31707317072854    0.31707317072854    0.00000000000000     0
    0.29268292682634    0.29268292682634    0.00000000000000     0
    0.26829268292415    0.26829268292415    0.00000000000000     0
    0.24390243902195    0.24390243902195    0.00000000000000     0
    0.21951219511976    0.21951219511976    0.00000000000000     0
    0.19512195121756    0.19512195121756    0.00000000000000     0
    0.17073170731537    0.17073170731537    0.00000000000000     0
    0.14634146341317    0.14634146341317    0.00000000000000     0
    0.12195121951098    0.12195121951098    0.00000000000000     0
    0.09756097560878    0.09756097560878    0.00000000000000     0
    0.07317073170659    0.07317073170659    0.00000000000000     0
    0.04878048780439    0.04878048780439    0.00000000000000     0
    0.02439024390220    0.02439024390220    0.00000000000000     0
    0.00000000000000    0.00000000000000    0.00000000000000     0
    0.00000000000000    0.00000000000000    0.00000000000000     0
    0.00000000000000    0.04285714285714    0.00000000000000     0
    0.00000000000000    0.08571428571429    0.00000000000000     0
    0.00000000000000    0.12857142857143    0.00000000000000     0
    0.00000000000000    0.17142857142857    0.00000000000000     0
    0.00000000000000    0.21428571428571    0.00000000000000     0
    0.00000000000000    0.25714285714286    0.00000000000000     0
    0.00000000000000    0.30000000000000    0.00000000000000     0
    0.00000000000000    0.34285714285714    0.00000000000000     0
    0.00000000000000    0.38571428571429    0.00000000000000     0
    0.00000000000000    0.42857142857143    0.00000000000000     0
    0.00000000000000    0.47142857142857    0.00000000000000     0
    0.00000000000000   -0.48571428571429    0.00000000000000     0
    0.00000000000000   -0.44285714285714    0.00000000000000     0
    0.00000000000000   -0.40000000000000    0.00000000000000     0
    0.00000000000000   -0.35714285714286    0.00000000000000     0
    0.00000000000000   -0.31428571428571    0.00000000000000     0
    0.00000000000000   -0.27142857142857    0.00000000000000     0
    0.00000000000000   -0.22857142857143    0.00000000000000     0
    0.00000000000000   -0.18571428571429    0.00000000000000     0
    0.00000000000000   -0.14285714285714    0.00000000000000     0
    0.00000000000000   -0.10000000000000    0.00000000000000     0
    0.00000000000000   -0.05714285714286    0.00000000000000     0
    0.00000000000000   -0.01428571428571    0.00000000000000     0
    0.00000000000000    0.02857142857143    0.00000000000000     0
    0.00000000000000    0.07142857142857    0.00000000000000     0
    0.00000000000000    0.11428571428571    0.00000000000000     0
    0.00000000000000    0.15714285714286    0.00000000000000     0
    0.00000000000000    0.20000000000000    0.00000000000000     0
    0.00000000000000    0.24285714285714    0.00000000000000     0
    0.00000000000000    0.28571428571429    0.00000000000000     0
    0.00000000000000    0.32857142857143    0.00000000000000     0
    0.00000000000000    0.37142857142857    0.00000000000000     0
    0.00000000000000    0.41428571428571    0.00000000000000     0
    0.00000000000000    0.45714285714286    0.00000000000000     0
    0.00000000000000   -0.50000000000000    0.00000000000000     0
    0.00000000000000   -0.50000000000000    0.00000000000000     0
    0.04999999999950    0.47499999999950    0.00000000000000     0
    0.09999999999900    0.44999999999900    0.00000000000000     0
    0.14999999999850    0.42499999999850    0.00000000000000     0
    0.19999999999800    0.39999999999800    0.00000000000000     0
    0.24999999999750    0.37499999999750    0.00000000000000     0
    0.29999999999700    0.34999999999700    0.00000000000000     0
    0.34999999999650    0.32499999999650    0.00000000000000     0
    0.39999999999600    0.29999999999600    0.00000000000000     0
    0.44999999999550    0.27499999999550    0.00000000000000     0
    0.49999999999500    0.24999999999500    0.00000000000000     0
   -0.45000000000550    0.22499999999450    0.00000000000000     0
   -0.40000000000600    0.19999999999400    0.00000000000000     0
   -0.35000000000650    0.17499999999350    0.00000000000000     0
   -0.30000000000700    0.14999999999300    0.00000000000000     0
   -0.25000000000750    0.12499999999250    0.00000000000000     0
   -0.20000000000800    0.09999999999200    0.00000000000000     0
   -0.15000000000850    0.07499999999150    0.00000000000000     0
   -0.10000000000900    0.04999999999100    0.00000000000000     0
   -0.05000000000950    0.02499999999050    0.00000000000000     0
   -0.00000000001000   -0.00000000001000    0.00000000000000     0
