SUPERCELL file generated by VASPKIT
 1.000000
    3.7032249587220001   -6.4141721146530006    0.0000000000000000
    3.7032249587220001    6.4141721146530006    0.0000000000000000
    0.0000000000000000    0.0000000000000000   12.0000000000000000
   C 
   18
Direct
    0.0000000000000000    0.0000000000000000    0.5000000000000000      C1
    0.0000000000000000    0.3333333333333334    0.5000000000000000      C2
    0.0000000000000000    0.6666666666666667    0.5000000000000000      C3
    0.3333333333333334    0.0000000000000000    0.5000000000000000      C4
    0.3333333333333334    0.3333333333333334    0.5000000000000000      C5
    0.3333333333333334    0.6666666666666667    0.5000000000000000      C6
    0.6666666666666667    0.0000000000000000    0.5000000000000000      C7
    0.6666666666666667    0.3333333333333334    0.5000000000000000      C8
    0.6666666666666667    0.6666666666666667    0.5000000000000000      C9
    0.1111109999972371    0.2222223333366387    0.5000000000000000     C10
    0.1111109999972371    0.5555556666699720    0.5000000000000000     C11
    0.1111109999972371    0.8888890000033053    0.5000000000000000     C12
    0.4444443333305704    0.2222223333366387    0.5000000000000000     C13
    0.4444443333305704    0.5555556666699720    0.5000000000000000     C14
    0.4444443333305704    0.8888890000033053    0.5000000000000000     C15
    0.7777776666639038    0.2222223333366387    0.5000000000000000     C16
    0.7777776666639038    0.5555556666699720    0.5000000000000000     C17
    0.7777776666639038    0.8888890000033053    0.5000000000000000     C18
