borophene                               
   1.00000000000000     
     1.6161855394899776    0.0000000000000000    0.0000000000000000
     0.0000000000000000    2.8556296323978039    0.0000000000000000
     0.0000000000000000    0.0000000000000000   11.3566538944048521
   O    B 
     1     1
Direct
 -0.0000000000000000 -0.0000000000000000  0.5110607456753155
  0.5000000000000000  0.5000000000000000  0.5889392193246866
 
  0.00000000E+00  0.00000000E+00  0.00000000E+00
  0.00000000E+00  0.00000000E+00  0.00000000E+00
