ATOMIC_SPECIES
C 12.011 ../../C_ONCV_PBE-1.0.upf upf201

NUMERICAL_ORBITAL
../../C_gga_7au_100Ry_2s2p1d.orb

LATTICE_CONSTANT
1.889726

LATTICE_VECTORS
2.45647205 0 0 #latvec1
-1.22823603 2.13805749 0 #latvec2
0 0 11.99999871 #latvec3

ATOMIC_POSITIONS
Direct

C #label
0 #magnetism
2 #number of atoms
0.666544913043  0.333089816085  0.5  m  1  1  1
0.333455086957  0.666910183915  0.5  m  1  1  1
