Ga2 Cu2 S4                              
   1.00000000000000     
     6.5325474739000002    0.0000000000000000    0.0000000000000000
     2.1186492402999999    6.1794418757000003    0.0000000000000000
    -4.3255979635999999   -3.0897206568000000    3.7969731390999999
   Ga   Cu   S 
     2     2     4
Direct
  0.5000000000000000  0.5000000000000000  0.0000000000000000
  0.2500000000000000  0.7500000000000000  0.5000000000000000
  0.0000000000000000  0.0000000000000000  0.0000000000000000
  0.7500000000000000  0.2500000000000000  0.5000000000000000
  0.3750000000000000  0.8756600020000036  0.0006600000000034
  0.8750000000000000  0.3743399980000035  0.9993399979999964
  0.6256600020000036  0.6250000000000000  0.5006600020000036
  0.1243399980000035  0.1250000000000000  0.4993399980000035
 
  0.00000000E+00  0.00000000E+00  0.00000000E+00
  0.00000000E+00  0.00000000E+00  0.00000000E+00
  0.00000000E+00  0.00000000E+00  0.00000000E+00
  0.00000000E+00  0.00000000E+00  0.00000000E+00
  0.00000000E+00  0.00000000E+00  0.00000000E+00
  0.00000000E+00  0.00000000E+00  0.00000000E+00
  0.00000000E+00  0.00000000E+00  0.00000000E+00
  0.00000000E+00  0.00000000E+00  0.00000000E+00
