G   42   42   53    0.005     # Parameters to Generate KPOINTS (Don't Edit This Line)
   23941
Reciprocal lattice
    0.000000000000    0.000000000000    0.000000000000       1
    0.023809523810    0.000000000000    0.000000000000       4
    0.047619047619    0.000000000000    0.000000000000       4
    0.071428571429    0.000000000000    0.000000000000       4
    0.095238095238    0.000000000000    0.000000000000       4
    0.119047619048    0.000000000000    0.000000000000       4
    0.142857142857    0.000000000000    0.000000000000       4
    0.166666666667    0.000000000000    0.000000000000       4
    0.190476190476    0.000000000000    0.000000000000       4
    0.214285714286    0.000000000000    0.000000000000       4
    0.238095238095    0.000000000000    0.000000000000       4
    0.261904761905    0.000000000000    0.000000000000       4
    0.285714285714    0.000000000000    0.000000000000       4
    0.309523809524    0.000000000000    0.000000000000       4
    0.333333333333    0.000000000000    0.000000000000       4
    0.357142857143    0.000000000000    0.000000000000       4
    0.380952380952    0.000000000000    0.000000000000       4
    0.404761904762    0.000000000000    0.000000000000       4
    0.428571428571    0.000000000000    0.000000000000       4
    0.452380952381    0.000000000000    0.000000000000       4
    0.476190476190    0.000000000000    0.000000000000       4
    0.500000000000    0.000000000000    0.000000000000       2
    0.023809523810    0.023809523810    0.000000000000       2
    0.047619047619    0.023809523810    0.000000000000       4
    0.071428571429    0.023809523810    0.000000000000       4
    0.095238095238    0.023809523810    0.000000000000       4
    0.119047619048    0.023809523810    0.000000000000       4
    0.142857142857    0.023809523810    0.000000000000       4
    0.166666666667    0.023809523810    0.000000000000       4
    0.190476190476    0.023809523810    0.000000000000       4
    0.214285714286    0.023809523810    0.000000000000       4
    0.238095238095    0.023809523810    0.000000000000       4
    0.261904761905    0.023809523810    0.000000000000       4
    0.285714285714    0.023809523810    0.000000000000       4
    0.309523809524    0.023809523810    0.000000000000       4
    0.333333333333    0.023809523810    0.000000000000       4
    0.357142857143    0.023809523810    0.000000000000       4
    0.380952380952    0.023809523810    0.000000000000       4
    0.404761904762    0.023809523810    0.000000000000       4
    0.428571428571    0.023809523810    0.000000000000       4
    0.452380952381    0.023809523810    0.000000000000       4
    0.476190476190    0.023809523810    0.000000000000       4
    0.500000000000    0.023809523810    0.000000000000       4
   -0.476190476190    0.023809523810    0.000000000000       4
   -0.452380952381    0.023809523810    0.000000000000       4
   -0.428571428571    0.023809523810    0.000000000000       4
   -0.404761904762    0.023809523810    0.000000000000       4
   -0.380952380952    0.023809523810    0.000000000000       4
   -0.357142857143    0.023809523810    0.000000000000       4
   -0.333333333333    0.023809523810    0.000000000000       4
   -0.309523809524    0.023809523810    0.000000000000       4
   -0.285714285714    0.023809523810    0.000000000000       4
   -0.261904761905    0.023809523810    0.000000000000       4
   -0.238095238095    0.023809523810    0.000000000000       4
   -0.214285714286    0.023809523810    0.000000000000       4
   -0.190476190476    0.023809523810    0.000000000000       4
   -0.166666666667    0.023809523810    0.000000000000       4
   -0.142857142857    0.023809523810    0.000000000000       4
   -0.119047619048    0.023809523810    0.000000000000       4
   -0.095238095238    0.023809523810    0.000000000000       4
   -0.071428571429    0.023809523810    0.000000000000       4
   -0.047619047619    0.023809523810    0.000000000000       4
   -0.023809523810    0.023809523810    0.000000000000       2
    0.047619047619    0.047619047619    0.000000000000       2
    0.071428571429    0.047619047619    0.000000000000       4
    0.095238095238    0.047619047619    0.000000000000       4
    0.119047619048    0.047619047619    0.000000000000       4
    0.142857142857    0.047619047619    0.000000000000       4
    0.166666666667    0.047619047619    0.000000000000       4
    0.190476190476    0.047619047619    0.000000000000       4
    0.214285714286    0.047619047619    0.000000000000       4
    0.238095238095    0.047619047619    0.000000000000       4
    0.261904761905    0.047619047619    0.000000000000       4
    0.285714285714    0.047619047619    0.000000000000       4
    0.309523809524    0.047619047619    0.000000000000       4
    0.333333333333    0.047619047619    0.000000000000       4
    0.357142857143    0.047619047619    0.000000000000       4
    0.380952380952    0.047619047619    0.000000000000       4
    0.404761904762    0.047619047619    0.000000000000       4
    0.428571428571    0.047619047619    0.000000000000       4
    0.452380952381    0.047619047619    0.000000000000       4
    0.476190476190    0.047619047619    0.000000000000       4
    0.500000000000    0.047619047619    0.000000000000       4
   -0.476190476190    0.047619047619    0.000000000000       4
   -0.452380952381    0.047619047619    0.000000000000       4
   -0.428571428571    0.047619047619    0.000000000000       4
   -0.404761904762    0.047619047619    0.000000000000       4
   -0.380952380952    0.047619047619    0.000000000000       4
   -0.357142857143    0.047619047619    0.000000000000       4
   -0.333333333333    0.047619047619    0.000000000000       4
   -0.309523809524    0.047619047619    0.000000000000       4
   -0.285714285714    0.047619047619    0.000000000000       4
   -0.261904761905    0.047619047619    0.000000000000       4
   -0.238095238095    0.047619047619    0.000000000000       4
   -0.214285714286    0.047619047619    0.000000000000       4
   -0.190476190476    0.047619047619    0.000000000000       4
   -0.166666666667    0.047619047619    0.000000000000       4
   -0.142857142857    0.047619047619    0.000000000000       4
   -0.119047619048    0.047619047619    0.000000000000       4
   -0.095238095238    0.047619047619    0.000000000000       4
   -0.071428571429    0.047619047619    0.000000000000       4
   -0.047619047619    0.047619047619    0.000000000000       2
    0.071428571429    0.071428571429    0.000000000000       2
    0.095238095238    0.071428571429    0.000000000000       4
    0.119047619048    0.071428571429    0.000000000000       4
    0.142857142857    0.071428571429    0.000000000000       4
    0.166666666667    0.071428571429    0.000000000000       4
    0.190476190476    0.071428571429    0.000000000000       4
    0.214285714286    0.071428571429    0.000000000000       4
    0.238095238095    0.071428571429    0.000000000000       4
    0.261904761905    0.071428571429    0.000000000000       4
    0.285714285714    0.071428571429    0.000000000000       4
    0.309523809524    0.071428571429    0.000000000000       4
    0.333333333333    0.071428571429    0.000000000000       4
    0.357142857143    0.071428571429    0.000000000000       4
    0.380952380952    0.071428571429    0.000000000000       4
    0.404761904762    0.071428571429    0.000000000000       4
    0.428571428571    0.071428571429    0.000000000000       4
    0.452380952381    0.071428571429    0.000000000000       4
    0.476190476190    0.071428571429    0.000000000000       4
    0.500000000000    0.071428571429    0.000000000000       4
   -0.476190476190    0.071428571429    0.000000000000       4
   -0.452380952381    0.071428571429    0.000000000000       4
   -0.428571428571    0.071428571429    0.000000000000       4
   -0.404761904762    0.071428571429    0.000000000000       4
   -0.380952380952    0.071428571429    0.000000000000       4
   -0.357142857143    0.071428571429    0.000000000000       4
   -0.333333333333    0.071428571429    0.000000000000       4
   -0.309523809524    0.071428571429    0.000000000000       4
   -0.285714285714    0.071428571429    0.000000000000       4
   -0.261904761905    0.071428571429    0.000000000000       4
   -0.238095238095    0.071428571429    0.000000000000       4
   -0.214285714286    0.071428571429    0.000000000000       4
   -0.190476190476    0.071428571429    0.000000000000       4
   -0.166666666667    0.071428571429    0.000000000000       4
   -0.142857142857    0.071428571429    0.000000000000       4
   -0.119047619048    0.071428571429    0.000000000000       4
   -0.095238095238    0.071428571429    0.000000000000       4
   -0.071428571429    0.071428571429    0.000000000000       2
    0.095238095238    0.095238095238    0.000000000000       2
    0.119047619048    0.095238095238    0.000000000000       4
    0.142857142857    0.095238095238    0.000000000000       4
    0.166666666667    0.095238095238    0.000000000000       4
    0.190476190476    0.095238095238    0.000000000000       4
    0.214285714286    0.095238095238    0.000000000000       4
    0.238095238095    0.095238095238    0.000000000000       4
    0.261904761905    0.095238095238    0.000000000000       4
    0.285714285714    0.095238095238    0.000000000000       4
    0.309523809524    0.095238095238    0.000000000000       4
    0.333333333333    0.095238095238    0.000000000000       4
    0.357142857143    0.095238095238    0.000000000000       4
    0.380952380952    0.095238095238    0.000000000000       4
    0.404761904762    0.095238095238    0.000000000000       4
    0.428571428571    0.095238095238    0.000000000000       4
    0.452380952381    0.095238095238    0.000000000000       4
    0.476190476190    0.095238095238    0.000000000000       4
    0.500000000000    0.095238095238    0.000000000000       4
   -0.476190476190    0.095238095238    0.000000000000       4
   -0.452380952381    0.095238095238    0.000000000000       4
   -0.428571428571    0.095238095238    0.000000000000       4
   -0.404761904762    0.095238095238    0.000000000000       4
   -0.380952380952    0.095238095238    0.000000000000       4
   -0.357142857143    0.095238095238    0.000000000000       4
   -0.333333333333    0.095238095238    0.000000000000       4
   -0.309523809524    0.095238095238    0.000000000000       4
   -0.285714285714    0.095238095238    0.000000000000       4
   -0.261904761905    0.095238095238    0.000000000000       4
   -0.238095238095    0.095238095238    0.000000000000       4
   -0.214285714286    0.095238095238    0.000000000000       4
   -0.190476190476    0.095238095238    0.000000000000       4
   -0.166666666667    0.095238095238    0.000000000000       4
   -0.142857142857    0.095238095238    0.000000000000       4
   -0.119047619048    0.095238095238    0.000000000000       4
   -0.095238095238    0.095238095238    0.000000000000       2
    0.119047619048    0.119047619048    0.000000000000       2
    0.142857142857    0.119047619048    0.000000000000       4
    0.166666666667    0.119047619048    0.000000000000       4
    0.190476190476    0.119047619048    0.000000000000       4
    0.214285714286    0.119047619048    0.000000000000       4
    0.238095238095    0.119047619048    0.000000000000       4
    0.261904761905    0.119047619048    0.000000000000       4
    0.285714285714    0.119047619048    0.000000000000       4
    0.309523809524    0.119047619048    0.000000000000       4
    0.333333333333    0.119047619048    0.000000000000       4
    0.357142857143    0.119047619048    0.000000000000       4
    0.380952380952    0.119047619048    0.000000000000       4
    0.404761904762    0.119047619048    0.000000000000       4
    0.428571428571    0.119047619048    0.000000000000       4
    0.452380952381    0.119047619048    0.000000000000       4
    0.476190476190    0.119047619048    0.000000000000       4
    0.500000000000    0.119047619048    0.000000000000       4
   -0.476190476190    0.119047619048    0.000000000000       4
   -0.452380952381    0.119047619048    0.000000000000       4
   -0.428571428571    0.119047619048    0.000000000000       4
   -0.404761904762    0.119047619048    0.000000000000       4
   -0.380952380952    0.119047619048    0.000000000000       4
   -0.357142857143    0.119047619048    0.000000000000       4
   -0.333333333333    0.119047619048    0.000000000000       4
   -0.309523809524    0.119047619048    0.000000000000       4
   -0.285714285714    0.119047619048    0.000000000000       4
   -0.261904761905    0.119047619048    0.000000000000       4
   -0.238095238095    0.119047619048    0.000000000000       4
   -0.214285714286    0.119047619048    0.000000000000       4
   -0.190476190476    0.119047619048    0.000000000000       4
   -0.166666666667    0.119047619048    0.000000000000       4
   -0.142857142857    0.119047619048    0.000000000000       4
   -0.119047619048    0.119047619048    0.000000000000       2
    0.142857142857    0.142857142857    0.000000000000       2
    0.166666666667    0.142857142857    0.000000000000       4
    0.190476190476    0.142857142857    0.000000000000       4
    0.214285714286    0.142857142857    0.000000000000       4
    0.238095238095    0.142857142857    0.000000000000       4
    0.261904761905    0.142857142857    0.000000000000       4
    0.285714285714    0.142857142857    0.000000000000       4
    0.309523809524    0.142857142857    0.000000000000       4
    0.333333333333    0.142857142857    0.000000000000       4
    0.357142857143    0.142857142857    0.000000000000       4
    0.380952380952    0.142857142857    0.000000000000       4
    0.404761904762    0.142857142857    0.000000000000       4
    0.428571428571    0.142857142857    0.000000000000       4
    0.452380952381    0.142857142857    0.000000000000       4
    0.476190476190    0.142857142857    0.000000000000       4
    0.500000000000    0.142857142857    0.000000000000       4
   -0.476190476190    0.142857142857    0.000000000000       4
   -0.452380952381    0.142857142857    0.000000000000       4
   -0.428571428571    0.142857142857    0.000000000000       4
   -0.404761904762    0.142857142857    0.000000000000       4
   -0.380952380952    0.142857142857    0.000000000000       4
   -0.357142857143    0.142857142857    0.000000000000       4
   -0.333333333333    0.142857142857    0.000000000000       4
   -0.309523809524    0.142857142857    0.000000000000       4
   -0.285714285714    0.142857142857    0.000000000000       4
   -0.261904761905    0.142857142857    0.000000000000       4
   -0.238095238095    0.142857142857    0.000000000000       4
   -0.214285714286    0.142857142857    0.000000000000       4
   -0.190476190476    0.142857142857    0.000000000000       4
   -0.166666666667    0.142857142857    0.000000000000       4
   -0.142857142857    0.142857142857    0.000000000000       2
    0.166666666667    0.166666666667    0.000000000000       2
    0.190476190476    0.166666666667    0.000000000000       4
    0.214285714286    0.166666666667    0.000000000000       4
    0.238095238095    0.166666666667    0.000000000000       4
    0.261904761905    0.166666666667    0.000000000000       4
    0.285714285714    0.166666666667    0.000000000000       4
    0.309523809524    0.166666666667    0.000000000000       4
    0.333333333333    0.166666666667    0.000000000000       4
    0.357142857143    0.166666666667    0.000000000000       4
    0.380952380952    0.166666666667    0.000000000000       4
    0.404761904762    0.166666666667    0.000000000000       4
    0.428571428571    0.166666666667    0.000000000000       4
    0.452380952381    0.166666666667    0.000000000000       4
    0.476190476190    0.166666666667    0.000000000000       4
    0.500000000000    0.166666666667    0.000000000000       4
   -0.476190476190    0.166666666667    0.000000000000       4
   -0.452380952381    0.166666666667    0.000000000000       4
   -0.428571428571    0.166666666667    0.000000000000       4
   -0.404761904762    0.166666666667    0.000000000000       4
   -0.380952380952    0.166666666667    0.000000000000       4
   -0.357142857143    0.166666666667    0.000000000000       4
   -0.333333333333    0.166666666667    0.000000000000       4
   -0.309523809524    0.166666666667    0.000000000000       4
   -0.285714285714    0.166666666667    0.000000000000       4
   -0.261904761905    0.166666666667    0.000000000000       4
   -0.238095238095    0.166666666667    0.000000000000       4
   -0.214285714286    0.166666666667    0.000000000000       4
   -0.190476190476    0.166666666667    0.000000000000       4
   -0.166666666667    0.166666666667    0.000000000000       2
    0.190476190476    0.190476190476    0.000000000000       2
    0.214285714286    0.190476190476    0.000000000000       4
    0.238095238095    0.190476190476    0.000000000000       4
    0.261904761905    0.190476190476    0.000000000000       4
    0.285714285714    0.190476190476    0.000000000000       4
    0.309523809524    0.190476190476    0.000000000000       4
    0.333333333333    0.190476190476    0.000000000000       4
    0.357142857143    0.190476190476    0.000000000000       4
    0.380952380952    0.190476190476    0.000000000000       4
    0.404761904762    0.190476190476    0.000000000000       4
    0.428571428571    0.190476190476    0.000000000000       4
    0.452380952381    0.190476190476    0.000000000000       4
    0.476190476190    0.190476190476    0.000000000000       4
    0.500000000000    0.190476190476    0.000000000000       4
   -0.476190476190    0.190476190476    0.000000000000       4
   -0.452380952381    0.190476190476    0.000000000000       4
   -0.428571428571    0.190476190476    0.000000000000       4
   -0.404761904762    0.190476190476    0.000000000000       4
   -0.380952380952    0.190476190476    0.000000000000       4
   -0.357142857143    0.190476190476    0.000000000000       4
   -0.333333333333    0.190476190476    0.000000000000       4
   -0.309523809524    0.190476190476    0.000000000000       4
   -0.285714285714    0.190476190476    0.000000000000       4
   -0.261904761905    0.190476190476    0.000000000000       4
   -0.238095238095    0.190476190476    0.000000000000       4
   -0.214285714286    0.190476190476    0.000000000000       4
   -0.190476190476    0.190476190476    0.000000000000       2
    0.214285714286    0.214285714286    0.000000000000       2
    0.238095238095    0.214285714286    0.000000000000       4
    0.261904761905    0.214285714286    0.000000000000       4
    0.285714285714    0.214285714286    0.000000000000       4
    0.309523809524    0.214285714286    0.000000000000       4
    0.333333333333    0.214285714286    0.000000000000       4
    0.357142857143    0.214285714286    0.000000000000       4
    0.380952380952    0.214285714286    0.000000000000       4
    0.404761904762    0.214285714286    0.000000000000       4
    0.428571428571    0.214285714286    0.000000000000       4
    0.452380952381    0.214285714286    0.000000000000       4
    0.476190476190    0.214285714286    0.000000000000       4
    0.500000000000    0.214285714286    0.000000000000       4
   -0.476190476190    0.214285714286    0.000000000000       4
   -0.452380952381    0.214285714286    0.000000000000       4
   -0.428571428571    0.214285714286    0.000000000000       4
   -0.404761904762    0.214285714286    0.000000000000       4
   -0.380952380952    0.214285714286    0.000000000000       4
   -0.357142857143    0.214285714286    0.000000000000       4
   -0.333333333333    0.214285714286    0.000000000000       4
   -0.309523809524    0.214285714286    0.000000000000       4
   -0.285714285714    0.214285714286    0.000000000000       4
   -0.261904761905    0.214285714286    0.000000000000       4
   -0.238095238095    0.214285714286    0.000000000000       4
   -0.214285714286    0.214285714286    0.000000000000       2
    0.238095238095    0.238095238095    0.000000000000       2
    0.261904761905    0.238095238095    0.000000000000       4
    0.285714285714    0.238095238095    0.000000000000       4
    0.309523809524    0.238095238095    0.000000000000       4
    0.333333333333    0.238095238095    0.000000000000       4
    0.357142857143    0.238095238095    0.000000000000       4
    0.380952380952    0.238095238095    0.000000000000       4
    0.404761904762    0.238095238095    0.000000000000       4
    0.428571428571    0.238095238095    0.000000000000       4
    0.452380952381    0.238095238095    0.000000000000       4
    0.476190476190    0.238095238095    0.000000000000       4
    0.500000000000    0.238095238095    0.000000000000       4
   -0.476190476190    0.238095238095    0.000000000000       4
   -0.452380952381    0.238095238095    0.000000000000       4
   -0.428571428571    0.238095238095    0.000000000000       4
   -0.404761904762    0.238095238095    0.000000000000       4
   -0.380952380952    0.238095238095    0.000000000000       4
   -0.357142857143    0.238095238095    0.000000000000       4
   -0.333333333333    0.238095238095    0.000000000000       4
   -0.309523809524    0.238095238095    0.000000000000       4
   -0.285714285714    0.238095238095    0.000000000000       4
   -0.261904761905    0.238095238095    0.000000000000       4
   -0.238095238095    0.238095238095    0.000000000000       2
    0.261904761905    0.261904761905    0.000000000000       2
    0.285714285714    0.261904761905    0.000000000000       4
    0.309523809524    0.261904761905    0.000000000000       4
    0.333333333333    0.261904761905    0.000000000000       4
    0.357142857143    0.261904761905    0.000000000000       4
    0.380952380952    0.261904761905    0.000000000000       4
    0.404761904762    0.261904761905    0.000000000000       4
    0.428571428571    0.261904761905    0.000000000000       4
    0.452380952381    0.261904761905    0.000000000000       4
    0.476190476190    0.261904761905    0.000000000000       4
    0.500000000000    0.261904761905    0.000000000000       4
   -0.476190476190    0.261904761905    0.000000000000       4
   -0.452380952381    0.261904761905    0.000000000000       4
   -0.428571428571    0.261904761905    0.000000000000       4
   -0.404761904762    0.261904761905    0.000000000000       4
   -0.380952380952    0.261904761905    0.000000000000       4
   -0.357142857143    0.261904761905    0.000000000000       4
   -0.333333333333    0.261904761905    0.000000000000       4
   -0.309523809524    0.261904761905    0.000000000000       4
   -0.285714285714    0.261904761905    0.000000000000       4
   -0.261904761905    0.261904761905    0.000000000000       2
    0.285714285714    0.285714285714    0.000000000000       2
    0.309523809524    0.285714285714    0.000000000000       4
    0.333333333333    0.285714285714    0.000000000000       4
    0.357142857143    0.285714285714    0.000000000000       4
    0.380952380952    0.285714285714    0.000000000000       4
    0.404761904762    0.285714285714    0.000000000000       4
    0.428571428571    0.285714285714    0.000000000000       4
    0.452380952381    0.285714285714    0.000000000000       4
    0.476190476190    0.285714285714    0.000000000000       4
    0.500000000000    0.285714285714    0.000000000000       4
   -0.476190476190    0.285714285714    0.000000000000       4
   -0.452380952381    0.285714285714    0.000000000000       4
   -0.428571428571    0.285714285714    0.000000000000       4
   -0.404761904762    0.285714285714    0.000000000000       4
   -0.380952380952    0.285714285714    0.000000000000       4
   -0.357142857143    0.285714285714    0.000000000000       4
   -0.333333333333    0.285714285714    0.000000000000       4
   -0.309523809524    0.285714285714    0.000000000000       4
   -0.285714285714    0.285714285714    0.000000000000       2
    0.309523809524    0.309523809524    0.000000000000       2
    0.333333333333    0.309523809524    0.000000000000       4
    0.357142857143    0.309523809524    0.000000000000       4
    0.380952380952    0.309523809524    0.000000000000       4
    0.404761904762    0.309523809524    0.000000000000       4
    0.428571428571    0.309523809524    0.000000000000       4
    0.452380952381    0.309523809524    0.000000000000       4
    0.476190476190    0.309523809524    0.000000000000       4
    0.500000000000    0.309523809524    0.000000000000       4
   -0.476190476190    0.309523809524    0.000000000000       4
   -0.452380952381    0.309523809524    0.000000000000       4
   -0.428571428571    0.309523809524    0.000000000000       4
   -0.404761904762    0.309523809524    0.000000000000       4
   -0.380952380952    0.309523809524    0.000000000000       4
   -0.357142857143    0.309523809524    0.000000000000       4
   -0.333333333333    0.309523809524    0.000000000000       4
   -0.309523809524    0.309523809524    0.000000000000       2
    0.333333333333    0.333333333333    0.000000000000       2
    0.357142857143    0.333333333333    0.000000000000       4
    0.380952380952    0.333333333333    0.000000000000       4
    0.404761904762    0.333333333333    0.000000000000       4
    0.428571428571    0.333333333333    0.000000000000       4
    0.452380952381    0.333333333333    0.000000000000       4
    0.476190476190    0.333333333333    0.000000000000       4
    0.500000000000    0.333333333333    0.000000000000       4
   -0.476190476190    0.333333333333    0.000000000000       4
   -0.452380952381    0.333333333333    0.000000000000       4
   -0.428571428571    0.333333333333    0.000000000000       4
   -0.404761904762    0.333333333333    0.000000000000       4
   -0.380952380952    0.333333333333    0.000000000000       4
   -0.357142857143    0.333333333333    0.000000000000       4
   -0.333333333333    0.333333333333    0.000000000000       2
    0.357142857143    0.357142857143    0.000000000000       2
    0.380952380952    0.357142857143    0.000000000000       4
    0.404761904762    0.357142857143    0.000000000000       4
    0.428571428571    0.357142857143    0.000000000000       4
    0.452380952381    0.357142857143    0.000000000000       4
    0.476190476190    0.357142857143    0.000000000000       4
    0.500000000000    0.357142857143    0.000000000000       4
   -0.476190476190    0.357142857143    0.000000000000       4
   -0.452380952381    0.357142857143    0.000000000000       4
   -0.428571428571    0.357142857143    0.000000000000       4
   -0.404761904762    0.357142857143    0.000000000000       4
   -0.380952380952    0.357142857143    0.000000000000       4
   -0.357142857143    0.357142857143    0.000000000000       2
    0.380952380952    0.380952380952    0.000000000000       2
    0.404761904762    0.380952380952    0.000000000000       4
    0.428571428571    0.380952380952    0.000000000000       4
    0.452380952381    0.380952380952    0.000000000000       4
    0.476190476190    0.380952380952    0.000000000000       4
    0.500000000000    0.380952380952    0.000000000000       4
   -0.476190476190    0.380952380952    0.000000000000       4
   -0.452380952381    0.380952380952    0.000000000000       4
   -0.428571428571    0.380952380952    0.000000000000       4
   -0.404761904762    0.380952380952    0.000000000000       4
   -0.380952380952    0.380952380952    0.000000000000       2
    0.404761904762    0.404761904762    0.000000000000       2
    0.428571428571    0.404761904762    0.000000000000       4
    0.452380952381    0.404761904762    0.000000000000       4
    0.476190476190    0.404761904762    0.000000000000       4
    0.500000000000    0.404761904762    0.000000000000       4
   -0.476190476190    0.404761904762    0.000000000000       4
   -0.452380952381    0.404761904762    0.000000000000       4
   -0.428571428571    0.404761904762    0.000000000000       4
   -0.404761904762    0.404761904762    0.000000000000       2
    0.428571428571    0.428571428571    0.000000000000       2
    0.452380952381    0.428571428571    0.000000000000       4
    0.476190476190    0.428571428571    0.000000000000       4
    0.500000000000    0.428571428571    0.000000000000       4
   -0.476190476190    0.428571428571    0.000000000000       4
   -0.452380952381    0.428571428571    0.000000000000       4
   -0.428571428571    0.428571428571    0.000000000000       2
    0.452380952381    0.452380952381    0.000000000000       2
    0.476190476190    0.452380952381    0.000000000000       4
    0.500000000000    0.452380952381    0.000000000000       4
   -0.476190476190    0.452380952381    0.000000000000       4
   -0.452380952381    0.452380952381    0.000000000000       2
    0.476190476190    0.476190476190    0.000000000000       2
    0.500000000000    0.476190476190    0.000000000000       4
   -0.476190476190    0.476190476190    0.000000000000       2
    0.500000000000    0.500000000000    0.000000000000       1
    0.000000000000    0.000000000000    0.018867924528       2
    0.023809523810    0.000000000000    0.018867924528       4
    0.047619047619    0.000000000000    0.018867924528       4
    0.071428571429    0.000000000000    0.018867924528       4
    0.095238095238    0.000000000000    0.018867924528       4
    0.119047619048    0.000000000000    0.018867924528       4
    0.142857142857    0.000000000000    0.018867924528       4
    0.166666666667    0.000000000000    0.018867924528       4
    0.190476190476    0.000000000000    0.018867924528       4
    0.214285714286    0.000000000000    0.018867924528       4
    0.238095238095    0.000000000000    0.018867924528       4