Ga2 Cu2 S4
1.0
        6.5325474739         0.0000000000         0.0000000000
        2.1186492403         6.1794418757         0.0000000000
       -4.3255979636        -3.0897206568         3.7969731391
   Ga   Cu    S
    2    2    4
Direct
     0.500000000         0.500000000         0.000000000
     0.250000000         0.750000000         0.500000000
     0.000000000         0.000000000         0.000000000
     0.750000000         0.250000000         0.500000000
     0.375000000         0.875660002         0.000660000
     0.875000000         0.374339998         0.999339998
     0.625660002         0.625000000         0.500660002
     0.124339998         0.125000000         0.499339998
