K-Spacing Value to Generate K-Mesh: 0.015
0
Monkhorst-Pack
  23  23  23
0.0  0.0  0.0
