Parameters to Generate KPOINTS (Don't Edit This Line):   0.040  0.040    8   99   3  42  36  21
   107
Reciprocal lattice
    0.00000000000000    0.00000000000000    0.00000000000000     1
    0.16666666666667    0.00000000000000    0.00000000000000     4
    0.33333333333333    0.00000000000000    0.00000000000000     4
    0.50000000000000    0.00000000000000    0.00000000000000     1
    0.00000000000000    0.33333333333333    0.00000000000000     2
    0.33333333333333    0.33333333333333    0.00000000000000     2
    0.50000000000000    0.33333333333333    0.00000000000000     2
   -0.16666666666667    0.33333333333333    0.00000000000000     2
   -0.00000000001000    0.33333333334000    0.00000000000000     0
   -0.02439024391220    0.34959349594146    0.00000000000000     0
   -0.04878048781439    0.36585365854293    0.00000000000000     0
   -0.07317073171659    0.38211382114439    0.00000000000000     0
   -0.09756097561878    0.39837398374585    0.00000000000000     0
   -0.12195121952098    0.41463414634732    0.00000000000000     0
   -0.14634146342317    0.43089430894878    0.00000000000000     0
   -0.17073170732537    0.44715447155024    0.00000000000000     0
   -0.19512195122756    0.46341463415171    0.00000000000000     0
   -0.21951219512976    0.47967479675317    0.00000000000000     0
   -0.24390243903195    0.49593495935463    0.00000000000000     0
   -0.26829268293415   -0.48780487804390    0.00000000000000     0
   -0.29268292683634   -0.47154471544244    0.00000000000000     0
   -0.31707317073854   -0.45528455284098    0.00000000000000     0
   -0.34146341464073   -0.43902439023951    0.00000000000000     0
   -0.36585365854293   -0.42276422763805    0.00000000000000     0
   -0.39024390244512   -0.40650406503659    0.00000000000000     0
   -0.41463414634732   -0.39024390243512    0.00000000000000     0
   -0.43902439024951   -0.37398373983366    0.00000000000000     0
   -0.46341463415171   -0.35772357723220    0.00000000000000     0
   -0.48780487805390   -0.34146341463073    0.00000000000000     0
    0.48780487804390   -0.32520325202927    0.00000000000000     0
    0.46341463414171   -0.30894308942780    0.00000000000000     0
    0.43902439023951   -0.29268292682634    0.00000000000000     0
    0.41463414633732   -0.27642276422488    0.00000000000000     0
    0.39024390243512   -0.26016260162341    0.00000000000000     0
    0.36585365853293   -0.24390243902195    0.00000000000000     0
    0.34146341463073   -0.22764227642049    0.00000000000000     0
    0.31707317072854   -0.21138211381902    0.00000000000000     0
    0.29268292682634   -0.19512195121756    0.00000000000000     0
    0.26829268292415   -0.17886178861610    0.00000000000000     0
    0.24390243902195   -0.16260162601463    0.00000000000000     0
    0.21951219511976   -0.14634146341317    0.00000000000000     0
    0.19512195121756   -0.13008130081171    0.00000000000000     0
    0.17073170731537   -0.11382113821024    0.00000000000000     0
    0.14634146341317   -0.09756097560878    0.00000000000000     0
    0.12195121951098   -0.08130081300732    0.00000000000000     0
    0.09756097560878   -0.06504065040585    0.00000000000000     0
    0.07317073170659   -0.04878048780439    0.00000000000000     0
    0.04878048780439   -0.03252032520293    0.00000000000000     0
    0.02439024390220   -0.01626016260146    0.00000000000000     0
    0.00000000000000    0.00000000000000    0.00000000000000     0
    0.00000000000000    0.00000000000000    0.00000000000000     0
    0.02857142857143    0.01428571428571    0.00000000000000     0
    0.05714285714286    0.02857142857143    0.00000000000000     0
    0.08571428571429    0.04285714285714    0.00000000000000     0
    0.11428571428571    0.05714285714286    0.00000000000000     0
    0.14285714285714    0.07142857142857    0.00000000000000     0
    0.17142857142857    0.08571428571429    0.00000000000000     0
    0.20000000000000    0.10000000000000    0.00000000000000     0
    0.22857142857143    0.11428571428571    0.00000000000000     0
    0.25714285714286    0.12857142857143    0.00000000000000     0
    0.28571428571429    0.14285714285714    0.00000000000000     0
    0.31428571428571    0.15714285714286    0.00000000000000     0
    0.34285714285714    0.17142857142857    0.00000000000000     0
    0.37142857142857    0.18571428571429    0.00000000000000     0
    0.40000000000000    0.20000000000000    0.00000000000000     0
    0.42857142857143    0.21428571428571    0.00000000000000     0
    0.45714285714286    0.22857142857143    0.00000000000000     0
    0.48571428571429    0.24285714285714    0.00000000000000     0
   -0.48571428571429    0.25714285714286    0.00000000000000     0
   -0.45714285714286    0.27142857142857    0.00000000000000     0
   -0.42857142857143    0.28571428571429    0.00000000000000     0
   -0.40000000000000    0.30000000000000    0.00000000000000     0
   -0.37142857142857    0.31428571428571    0.00000000000000     0
   -0.34285714285714    0.32857142857143    0.00000000000000     0
   -0.31428571428571    0.34285714285714    0.00000000000000     0
   -0.28571428571429    0.35714285714286    0.00000000000000     0
   -0.25714285714286    0.37142857142857    0.00000000000000     0
   -0.22857142857143    0.38571428571429    0.00000000000000     0
   -0.20000000000000    0.40000000000000    0.00000000000000     0
   -0.17142857142857    0.41428571428571    0.00000000000000     0
   -0.14285714285714    0.42857142857143    0.00000000000000     0
   -0.11428571428571    0.44285714285714    0.00000000000000     0
   -0.08571428571429    0.45714285714286    0.00000000000000     0
   -0.05714285714286    0.47142857142857    0.00000000000000     0
   -0.02857142857143    0.48571428571429    0.00000000000000     0
    0.00000000000000   -0.50000000000000    0.00000000000000     0
    0.00000000000000   -0.50000000000000    0.00000000000000     0
   -0.00000000000050    0.44166666666700    0.00000000000000     0
   -0.00000000000100    0.38333333333400    0.00000000000000     0
   -0.00000000000150    0.32500000000100    0.00000000000000     0
   -0.00000000000200    0.26666666666800    0.00000000000000     0
   -0.00000000000250    0.20833333333500    0.00000000000000     0
   -0.00000000000300    0.15000000000200    0.00000000000000     0
   -0.00000000000350    0.09166666666900    0.00000000000000     0
   -0.00000000000400    0.03333333333600    0.00000000000000     0
   -0.00000000000450   -0.02499999999700    0.00000000000000     0
   -0.00000000000500   -0.08333333333000    0.00000000000000     0
   -0.00000000000550   -0.14166666666300    0.00000000000000     0
   -0.00000000000600   -0.19999999999600    0.00000000000000     0
   -0.00000000000650   -0.25833333332900    0.00000000000000     0
   -0.00000000000700   -0.31666666666200    0.00000000000000     0
   -0.00000000000750   -0.37499999999500    0.00000000000000     0
   -0.00000000000800   -0.43333333332800    0.00000000000000     0
   -0.00000000000850   -0.49166666666100    0.00000000000000     0
   -0.00000000000900    0.45000000000600    0.00000000000000     0
   -0.00000000000950    0.39166666667300    0.00000000000000     0
   -0.00000000001000    0.33333333334000    0.00000000000000     0
