  Global Parameters
  ISTART = 1
  LREAL = Auto
  PREC = F
  LWAVE = .TRUE.
  LCHARG = .TRUE.
  ADDGRID= .TRUE.
  
  
Electronic Relaxation
  ISMEAR = 0
  SIGMA = 0.05
  NELM = 60
  NELMIN = 6
  EDIFF = 1E-08
  
