Parameters to Generate KPOINTS (Don't Edit This Line):   0.040  0.040    3   48   2  16  32
    51
Reciprocal lattice
    0.00000000000000    0.00000000000000    0.00000000000000     1
    0.33333333333333    0.00000000000000    0.00000000000000     6
    0.33333333333333    0.33333333333333    0.00000000000000     2
    0.00000000000000   -0.50000000000000    0.00000000000000     0
    0.06666666666600    0.46666666666600    0.00000000000000     0
    0.13333333333200    0.43333333333200    0.00000000000000     0
    0.19999999999800    0.39999999999800    0.00000000000000     0
    0.26666666666400    0.36666666666400    0.00000000000000     0
    0.33333333333000    0.33333333333000    0.00000000000000     0
    0.39999999999600    0.29999999999600    0.00000000000000     0
    0.46666666666200    0.26666666666200    0.00000000000000     0
   -0.46666666667200    0.23333333332800    0.00000000000000     0
   -0.40000000000600    0.19999999999400    0.00000000000000     0
   -0.33333333334000    0.16666666666000    0.00000000000000     0
   -0.26666666667400    0.13333333332600    0.00000000000000     0
   -0.20000000000800    0.09999999999200    0.00000000000000     0
   -0.13333333334200    0.06666666665800    0.00000000000000     0
   -0.06666666667600    0.03333333332400    0.00000000000000     0
   -0.00000000001000   -0.00000000001000    0.00000000000000     0
   -0.00000000001000   -0.00000000001000    0.00000000000000     0
   -0.03225806452581   -0.03225806452581    0.00000000000000     0
   -0.06451612904161   -0.06451612904161    0.00000000000000     0
   -0.09677419355742   -0.09677419355742    0.00000000000000     0
   -0.12903225807323   -0.12903225807323    0.00000000000000     0
   -0.16129032258903   -0.16129032258903    0.00000000000000     0
   -0.19354838710484   -0.19354838710484    0.00000000000000     0
   -0.22580645162065   -0.22580645162065    0.00000000000000     0
   -0.25806451613645   -0.25806451613645    0.00000000000000     0
   -0.29032258065226   -0.29032258065226    0.00000000000000     0
   -0.32258064516806   -0.32258064516806    0.00000000000000     0
   -0.35483870968387   -0.35483870968387    0.00000000000000     0
   -0.38709677419968   -0.38709677419968    0.00000000000000     0
   -0.41935483871548   -0.41935483871548    0.00000000000000     0
   -0.45161290323129   -0.45161290323129    0.00000000000000     0
   -0.48387096774710   -0.48387096774710    0.00000000000000     0
    0.48387096773710    0.48387096773710    0.00000000000000     0
    0.45161290322129    0.45161290322129    0.00000000000000     0
    0.41935483870548    0.41935483870548    0.00000000000000     0
    0.38709677418968    0.38709677418968    0.00000000000000     0
    0.35483870967387    0.35483870967387    0.00000000000000     0
    0.32258064515806    0.32258064515806    0.00000000000000     0
    0.29032258064226    0.29032258064226    0.00000000000000     0
    0.25806451612645    0.25806451612645    0.00000000000000     0
    0.22580645161065    0.22580645161065    0.00000000000000     0
    0.19354838709484    0.19354838709484    0.00000000000000     0
    0.16129032257903    0.16129032257903    0.00000000000000     0
    0.12903225806323    0.12903225806323    0.00000000000000     0
    0.09677419354742    0.09677419354742    0.00000000000000     0
    0.06451612903161    0.06451612903161    0.00000000000000     0
    0.03225806451581    0.03225806451581    0.00000000000000     0
    0.00000000000000    0.00000000000000    0.00000000000000     0
