VOLUME scale factor:  1.1576
 3.7138
    0.0000000000000000    0.5000000000000000    0.5000000000000000
    0.5000000000000000    0.0000000000000000    0.5000000000000000
    0.5000000000000000    0.5000000000000000    0.0000000000000000
   C 
    2
DIRECT
    0.0000000000000000    0.0000000000000000    0.0000000000000000     C1
    0.2500000000000000    0.2500000000000000    0.2500000000000000     C2
