0.030   4   4   1    4  0.020  153    3   56   32   65           # Parameters to Generate KPOINTS (Don't Edit This Line)
   157
Reciprocal lattice
    0.00000000000000    0.00000000000000    0.00000000000000     1
    0.25000000000000    0.00000000000000    0.00000000000000     6
    0.50000000000000    0.00000000000000    0.00000000000000     3
    0.25000000000000    0.25000000000000    0.00000000000000     6
    0.00000000000000    0.00000000000000    0.00000000000000     0
    0.02727272727273    0.00000000000000    0.00000000000000     0
    0.05454545454545    0.00000000000000    0.00000000000000     0
    0.08181818181818    0.00000000000000    0.00000000000000     0
    0.10909090909091    0.00000000000000    0.00000000000000     0
    0.13636363636364    0.00000000000000    0.00000000000000     0
    0.16363636363636    0.00000000000000    0.00000000000000     0
    0.19090909090909    0.00000000000000    0.00000000000000     0
    0.21818181818182    0.00000000000000    0.00000000000000     0
    0.24545454545455    0.00000000000000    0.00000000000000     0
    0.27272727272727    0.00000000000000    0.00000000000000     0
    0.30000000000000    0.00000000000000    0.00000000000000     0
    0.32727272727273    0.00000000000000    0.00000000000000     0
    0.35454545454545    0.00000000000000    0.00000000000000     0
    0.38181818181818    0.00000000000000    0.00000000000000     0
    0.40909090909091    0.00000000000000    0.00000000000000     0
    0.43636363636364    0.00000000000000    0.00000000000000     0
    0.46363636363636    0.00000000000000    0.00000000000000     0
    0.49090909090909    0.00000000000000    0.00000000000000     0
   -0.48181818181818    0.00000000000000    0.00000000000000     0
   -0.45454545454545    0.00000000000000    0.00000000000000     0
   -0.42727272727273    0.00000000000000    0.00000000000000     0
   -0.40000000000000    0.00000000000000    0.00000000000000     0
   -0.37272727272727    0.00000000000000    0.00000000000000     0
   -0.34545454545455    0.00000000000000    0.00000000000000     0
   -0.31818181818182    0.00000000000000    0.00000000000000     0
   -0.29090909090909    0.00000000000000    0.00000000000000     0
   -0.26363636363636    0.00000000000000    0.00000000000000     0
   -0.23636363636364    0.00000000000000    0.00000000000000     0
   -0.20909090909091    0.00000000000000    0.00000000000000     0
   -0.18181818181818    0.00000000000000    0.00000000000000     0
   -0.15454545454545    0.00000000000000    0.00000000000000     0
   -0.12727272727273    0.00000000000000    0.00000000000000     0
   -0.10000000000000    0.00000000000000    0.00000000000000     0
   -0.07272727272727    0.00000000000000    0.00000000000000     0
   -0.04545454545455    0.00000000000000    0.00000000000000     0
   -0.01818181818182    0.00000000000000    0.00000000000000     0
    0.00909090909091    0.00000000000000    0.00000000000000     0
    0.03636363636364    0.00000000000000    0.00000000000000     0
    0.06363636363636    0.00000000000000    0.00000000000000     0
    0.09090909090909    0.00000000000000    0.00000000000000     0
    0.11818181818182    0.00000000000000    0.00000000000000     0
    0.14545454545455    0.00000000000000    0.00000000000000     0
    0.17272727272727    0.00000000000000    0.00000000000000     0
    0.20000000000000    0.00000000000000    0.00000000000000     0
    0.22727272727273    0.00000000000000    0.00000000000000     0
    0.25454545454545    0.00000000000000    0.00000000000000     0
    0.28181818181818    0.00000000000000    0.00000000000000     0
    0.30909090909091    0.00000000000000    0.00000000000000     0
    0.33636363636364    0.00000000000000    0.00000000000000     0
    0.36363636363636    0.00000000000000    0.00000000000000     0
    0.39090909090909    0.00000000000000    0.00000000000000     0
    0.41818181818182    0.00000000000000    0.00000000000000     0
    0.44545454545455    0.00000000000000    0.00000000000000     0
    0.47272727272727    0.00000000000000    0.00000000000000     0
   -0.50000000000000    0.00000000000000    0.00000000000000     0
   -0.50000000000000    0.00000000000000    0.00000000000000     0
    0.48387096773871    0.03225806451290    0.00000000000000     0
    0.46774193547742    0.06451612902581    0.00000000000000     0
    0.45161290321613    0.09677419353871    0.00000000000000     0
    0.43548387095484    0.12903225805161    0.00000000000000     0
    0.41935483869355    0.16129032256452    0.00000000000000     0
    0.40322580643226    0.19354838707742    0.00000000000000     0
    0.38709677417097    0.22580645159032    0.00000000000000     0
    0.37096774190968    0.25806451610323    0.00000000000000     0
    0.35483870964839    0.29032258061613    0.00000000000000     0
    0.33870967738710    0.32258064512903    0.00000000000000     0
    0.32258064512581    0.35483870964194    0.00000000000000     0
    0.30645161286452    0.38709677415484    0.00000000000000     0
    0.29032258060323    0.41935483866774    0.00000000000000     0
    0.27419354834194    0.45161290318065    0.00000000000000     0
    0.25806451608065    0.48387096769355    0.00000000000000     0
    0.24193548381935   -0.48387096779355    0.00000000000000     0
    0.22580645155806   -0.45161290328065    0.00000000000000     0
    0.20967741929677   -0.41935483876774    0.00000000000000     0
    0.19354838703548   -0.38709677425484    0.00000000000000     0
    0.17741935477419   -0.35483870974194    0.00000000000000     0
    0.16129032251290   -0.32258064522903    0.00000000000000     0
    0.14516129025161   -0.29032258071613    0.00000000000000     0
    0.12903225799032   -0.25806451620323    0.00000000000000     0
    0.11290322572903   -0.22580645169032    0.00000000000000     0
    0.09677419346774   -0.19354838717742    0.00000000000000     0
    0.08064516120645   -0.16129032266452    0.00000000000000     0
    0.06451612894516   -0.12903225815161    0.00000000000000     0
    0.04838709668387   -0.09677419363871    0.00000000000000     0
    0.03225806442258   -0.06451612912581    0.00000000000000     0
    0.01612903216129   -0.03225806461290    0.00000000000000     0
   -0.00000000010000   -0.00000000010000    0.00000000000000     0
   -0.00000000010000   -0.00000000010000    0.00000000000000     0
   -0.01562500009844   -0.01562500009844    0.00000000000000     0
   -0.03125000009688   -0.03125000009688    0.00000000000000     0
   -0.04687500009531   -0.04687500009531    0.00000000000000     0
   -0.06250000009375   -0.06250000009375    0.00000000000000     0
   -0.07812500009219   -0.07812500009219    0.00000000000000     0
   -0.09375000009063   -0.09375000009063    0.00000000000000     0
   -0.10937500008906   -0.10937500008906    0.00000000000000     0
   -0.12500000008750   -0.12500000008750    0.00000000000000     0
   -0.14062500008594   -0.14062500008594    0.00000000000000     0
   -0.15625000008437   -0.15625000008437    0.00000000000000     0
   -0.17187500008281   -0.17187500008281    0.00000000000000     0
   -0.18750000008125   -0.18750000008125    0.00000000000000     0
   -0.20312500007969   -0.20312500007969    0.00000000000000     0
   -0.21875000007812   -0.21875000007812    0.00000000000000     0
   -0.23437500007656   -0.23437500007656    0.00000000000000     0
   -0.25000000007500   -0.25000000007500    0.00000000000000     0
   -0.26562500007344   -0.26562500007344    0.00000000000000     0
   -0.28125000007188   -0.28125000007188    0.00000000000000     0
   -0.29687500007031   -0.29687500007031    0.00000000000000     0
   -0.31250000006875   -0.31250000006875    0.00000000000000     0
   -0.32812500006719   -0.32812500006719    0.00000000000000     0
   -0.34375000006563   -0.34375000006563    0.00000000000000     0
   -0.35937500006406   -0.35937500006406    0.00000000000000     0
   -0.37500000006250   -0.37500000006250    0.00000000000000     0
   -0.39062500006094   -0.39062500006094    0.00000000000000     0
   -0.40625000005938   -0.40625000005938    0.00000000000000     0
   -0.42187500005781   -0.42187500005781    0.00000000000000     0
   -0.43750000005625   -0.43750000005625    0.00000000000000     0
   -0.45312500005469   -0.45312500005469    0.00000000000000     0
   -0.46875000005313   -0.46875000005313    0.00000000000000     0
   -0.48437500005156   -0.48437500005156    0.00000000000000     0
    0.49999999995000    0.49999999995000    0.00000000000000     0
    0.48437499995156    0.48437499995156    0.00000000000000     0
    0.46874999995312    0.46874999995312    0.00000000000000     0
    0.45312499995469    0.45312499995469    0.00000000000000     0
    0.43749999995625    0.43749999995625    0.00000000000000     0
    0.42187499995781    0.42187499995781    0.00000000000000     0
    0.40624999995937    0.40624999995937    0.00000000000000     0
    0.39062499996094    0.39062499996094    0.00000000000000     0
    0.37499999996250    0.37499999996250    0.00000000000000     0
    0.35937499996406    0.35937499996406    0.00000000000000     0
    0.34374999996562    0.34374999996562    0.00000000000000     0
    0.32812499996719    0.32812499996719    0.00000000000000     0
    0.31249999996875    0.31249999996875    0.00000000000000     0
    0.29687499997031    0.29687499997031    0.00000000000000     0
    0.28124999997187    0.28124999997187    0.00000000000000     0
    0.26562499997344    0.26562499997344    0.00000000000000     0
    0.24999999997500    0.24999999997500    0.00000000000000     0
    0.23437499997656    0.23437499997656    0.00000000000000     0
    0.21874999997813    0.21874999997813    0.00000000000000     0
    0.20312499997969    0.20312499997969    0.00000000000000     0
    0.18749999998125    0.18749999998125    0.00000000000000     0
    0.17187499998281    0.17187499998281    0.00000000000000     0
    0.15624999998437    0.15624999998437    0.00000000000000     0
    0.14062499998594    0.14062499998594    0.00000000000000     0
    0.12499999998750    0.12499999998750    0.00000000000000     0
    0.10937499998906    0.10937499998906    0.00000000000000     0
    0.09374999999062    0.09374999999062    0.00000000000000     0
    0.07812499999219    0.07812499999219    0.00000000000000     0
    0.06249999999375    0.06249999999375    0.00000000000000     0
    0.04687499999531    0.04687499999531    0.00000000000000     0
    0.03124999999688    0.03124999999688    0.00000000000000     0
    0.01562499999844    0.01562499999844    0.00000000000000     0
    0.00000000000000    0.00000000000000    0.00000000000000     0
