System = Si 
PREC = Normal ; 
ENCUT = 400.0 
ISMEAR = 0 ; 
SIGMA = 0.20 
NELM = 30; 
NBANDS = 216
NOMEGA = 72 
LWAVE = .TRUE.
LSPECTRAL= .TRUE.
LOPTICS= .TRUE.
EDIFF = 1E-08
NEDOS = 10001
