 Si                                     
   5.40300000000000     
     0.0000000000000000    0.4999999999999999    0.4999999999999999
     0.4999999999999999    0.0000000000000000    0.4999999999999999
     0.4999999999999999    0.4999999999999999    0.0000000000000000
   Si
     2
Direct
  0.0000000000000000  0.0000000000000000  0.0000000000000000
  0.2500000000000000  0.2500000000000000  0.2500000000000000
 
  0.00000000E+00  0.00000000E+00  0.00000000E+00
  0.00000000E+00  0.00000000E+00  0.00000000E+00
