G   80   80   80    0.004     # Parameters to Generate KPOINTS (Don't Edit This Line)
   11921
Reciprocal lattice
    0.000000000000    0.000000000000    0.000000000000       1
    0.012500000000    0.000000000000    0.000000000000       8
    0.025000000000    0.000000000000    0.000000000000       8
    0.037500000000    0.000000000000    0.000000000000       8
    0.050000000000    0.000000000000    0.000000000000       8
    0.062500000000    0.000000000000    0.000000000000       8
    0.075000000000    0.000000000000    0.000000000000       8
    0.087500000000    0.000000000000    0.000000000000       8
    0.100000000000    0.000000000000    0.000000000000       8
    0.112500000000    0.000000000000    0.000000000000       8
    0.125000000000    0.000000000000    0.000000000000       8
    0.137500000000    0.000000000000    0.000000000000       8
    0.150000000000    0.000000000000    0.000000000000       8
    0.162500000000    0.000000000000    0.000000000000       8
    0.175000000000    0.000000000000    0.000000000000       8
    0.187500000000    0.000000000000    0.000000000000       8
    0.200000000000    0.000000000000    0.000000000000       8
    0.212500000000    0.000000000000    0.000000000000       8
    0.225000000000    0.000000000000    0.000000000000       8
    0.237500000000    0.000000000000    0.000000000000       8
    0.250000000000    0.000000000000    0.000000000000       8
    0.262500000000    0.000000000000    0.000000000000       8
    0.275000000000    0.000000000000    0.000000000000       8
    0.287500000000    0.000000000000    0.000000000000       8
    0.300000000000    0.000000000000    0.000000000000       8
    0.312500000000    0.000000000000    0.000000000000       8
    0.325000000000    0.000000000000    0.000000000000       8
    0.337500000000    0.000000000000    0.000000000000       8
    0.350000000000    0.000000000000    0.000000000000       8
    0.362500000000    0.000000000000    0.000000000000       8
    0.375000000000    0.000000000000    0.000000000000       8
    0.387500000000    0.000000000000    0.000000000000       8
    0.400000000000    0.000000000000    0.000000000000       8
    0.412500000000    0.000000000000    0.000000000000       8
    0.425000000000    0.000000000000    0.000000000000       8
    0.437500000000    0.000000000000    0.000000000000       8
    0.450000000000    0.000000000000    0.000000000000       8
    0.462500000000    0.000000000000    0.000000000000       8
    0.475000000000    0.000000000000    0.000000000000       8
    0.487500000000    0.000000000000    0.000000000000       8
    0.500000000000    0.000000000000    0.000000000000       4
    0.012500000000    0.012500000000    0.000000000000       6
    0.025000000000    0.012500000000    0.000000000000      24
    0.037500000000    0.012500000000    0.000000000000      24
    0.050000000000    0.012500000000    0.000000000000      24
    0.062500000000    0.012500000000    0.000000000000      24
    0.075000000000    0.012500000000    0.000000000000      24
    0.087500000000    0.012500000000    0.000000000000      24
    0.100000000000    0.012500000000    0.000000000000      24
    0.112500000000    0.012500000000    0.000000000000      24
    0.125000000000    0.012500000000    0.000000000000      24
    0.137500000000    0.012500000000    0.000000000000      24
    0.150000000000    0.012500000000    0.000000000000      24
    0.162500000000    0.012500000000    0.000000000000      24
    0.175000000000    0.012500000000    0.000000000000      24
    0.187500000000    0.012500000000    0.000000000000      24
    0.200000000000    0.012500000000    0.000000000000      24
    0.212500000000    0.012500000000    0.000000000000      24
    0.225000000000    0.012500000000    0.000000000000      24
    0.237500000000    0.012500000000    0.000000000000      24
    0.250000000000    0.012500000000    0.000000000000      24
    0.262500000000    0.012500000000    0.000000000000      24
    0.275000000000    0.012500000000    0.000000000000      24
    0.287500000000    0.012500000000    0.000000000000      24
    0.300000000000    0.012500000000    0.000000000000      24
    0.312500000000    0.012500000000    0.000000000000      24
    0.325000000000    0.012500000000    0.000000000000      24
    0.337500000000    0.012500000000    0.000000000000      24
    0.350000000000    0.012500000000    0.000000000000      24
    0.362500000000    0.012500000000    0.000000000000      24
    0.375000000000    0.012500000000    0.000000000000      24
    0.387500000000    0.012500000000    0.000000000000      24
    0.400000000000    0.012500000000    0.000000000000      24
    0.412500000000    0.012500000000    0.000000000000      24
    0.425000000000    0.012500000000    0.000000000000      24
    0.437500000000    0.012500000000    0.000000000000      24
    0.450000000000    0.012500000000    0.000000000000      24
    0.462500000000    0.012500000000    0.000000000000      24
    0.475000000000    0.012500000000    0.000000000000      24
    0.487500000000    0.012500000000    0.000000000000      24
    0.500000000000    0.012500000000    0.000000000000      24
   -0.487500000000    0.012500000000    0.000000000000      24
   -0.475000000000    0.012500000000    0.000000000000      24
   -0.462500000000    0.012500000000    0.000000000000      24
   -0.450000000000    0.012500000000    0.000000000000      24
   -0.437500000000    0.012500000000    0.000000000000      24
   -0.425000000000    0.012500000000    0.000000000000      24
   -0.412500000000    0.012500000000    0.000000000000      24
   -0.400000000000    0.012500000000    0.000000000000      24
   -0.387500000000    0.012500000000    0.000000000000      24
   -0.375000000000    0.012500000000    0.000000000000      24
   -0.362500000000    0.012500000000    0.000000000000      24
   -0.350000000000    0.012500000000    0.000000000000      24
   -0.337500000000    0.012500000000    0.000000000000      24
   -0.325000000000    0.012500000000    0.000000000000      24
   -0.312500000000    0.012500000000    0.000000000000      24
   -0.300000000000    0.012500000000    0.000000000000      24
   -0.287500000000    0.012500000000    0.000000000000      24
   -0.275000000000    0.012500000000    0.000000000000      24
   -0.262500000000    0.012500000000    0.000000000000      24
   -0.250000000000    0.012500000000    0.000000000000      24
   -0.237500000000    0.012500000000    0.000000000000      24
   -0.225000000000    0.012500000000    0.000000000000      24
   -0.212500000000    0.012500000000    0.000000000000      24
   -0.200000000000    0.012500000000    0.000000000000      24
   -0.187500000000    0.012500000000    0.000000000000      24
   -0.175000000000    0.012500000000    0.000000000000      24
   -0.162500000000    0.012500000000    0.000000000000      24
   -0.150000000000    0.012500000000    0.000000000000      24
   -0.137500000000    0.012500000000    0.000000000000      24
   -0.125000000000    0.012500000000    0.000000000000      24
   -0.112500000000    0.012500000000    0.000000000000      24
   -0.100000000000    0.012500000000    0.000000000000      24
   -0.087500000000    0.012500000000    0.000000000000      24
   -0.075000000000    0.012500000000    0.000000000000      24
   -0.062500000000    0.012500000000    0.000000000000      24
   -0.050000000000    0.012500000000    0.000000000000      24
   -0.037500000000    0.012500000000    0.000000000000      24
   -0.025000000000    0.012500000000    0.000000000000      24
   -0.012500000000    0.012500000000    0.000000000000      12
    0.025000000000    0.025000000000    0.000000000000       6
    0.037500000000    0.025000000000    0.000000000000      24
    0.050000000000    0.025000000000    0.000000000000      24
    0.062500000000    0.025000000000    0.000000000000      24
    0.075000000000    0.025000000000    0.000000000000      24
    0.087500000000    0.025000000000    0.000000000000      24
    0.100000000000    0.025000000000    0.000000000000      24
    0.112500000000    0.025000000000    0.000000000000      24
    0.125000000000    0.025000000000    0.000000000000      24
    0.137500000000    0.025000000000    0.000000000000      24
    0.150000000000    0.025000000000    0.000000000000      24
    0.162500000000    0.025000000000    0.000000000000      24
    0.175000000000    0.025000000000    0.000000000000      24
    0.187500000000    0.025000000000    0.000000000000      24
    0.200000000000    0.025000000000    0.000000000000      24
    0.212500000000    0.025000000000    0.000000000000      24
    0.225000000000    0.025000000000    0.000000000000      24
    0.237500000000    0.025000000000    0.000000000000      24
    0.250000000000    0.025000000000    0.000000000000      24
    0.262500000000    0.025000000000    0.000000000000      24
    0.275000000000    0.025000000000    0.000000000000      24
    0.287500000000    0.025000000000    0.000000000000      24
    0.300000000000    0.025000000000    0.000000000000      24
    0.312500000000    0.025000000000    0.000000000000      24
    0.325000000000    0.025000000000    0.000000000000      24
    0.337500000000    0.025000000000    0.000000000000      24
    0.350000000000    0.025000000000    0.000000000000      24
    0.362500000000    0.025000000000    0.000000000000      24
    0.375000000000    0.025000000000    0.000000000000      24
    0.387500000000    0.025000000000    0.000000000000      24
    0.400000000000    0.025000000000    0.000000000000      24
    0.412500000000    0.025000000000    0.000000000000      24
    0.425000000000    0.025000000000    0.000000000000      24
    0.437500000000    0.025000000000    0.000000000000      24
    0.450000000000    0.025000000000    0.000000000000      24
    0.462500000000    0.025000000000    0.000000000000      24
    0.475000000000    0.025000000000    0.000000000000      24
    0.487500000000    0.025000000000    0.000000000000      24
    0.500000000000    0.025000000000    0.000000000000      24
   -0.487500000000    0.025000000000    0.000000000000      24
   -0.475000000000    0.025000000000    0.000000000000      24
   -0.462500000000    0.025000000000    0.000000000000      24
   -0.450000000000    0.025000000000    0.000000000000      24
   -0.437500000000    0.025000000000    0.000000000000      24
   -0.425000000000    0.025000000000    0.000000000000      24
   -0.412500000000    0.025000000000    0.000000000000      24
   -0.400000000000    0.025000000000    0.000000000000      24
   -0.387500000000    0.025000000000    0.000000000000      24
   -0.375000000000    0.025000000000    0.000000000000      24
   -0.362500000000    0.025000000000    0.000000000000      24
   -0.350000000000    0.025000000000    0.000000000000      24
   -0.337500000000    0.025000000000    0.000000000000      24
   -0.325000000000    0.025000000000    0.000000000000      24
   -0.312500000000    0.025000000000    0.000000000000      24
   -0.300000000000    0.025000000000    0.000000000000      24
   -0.287500000000    0.025000000000    0.000000000000      24
   -0.275000000000    0.025000000000    0.000000000000      24
   -0.262500000000    0.025000000000    0.000000000000      24
   -0.250000000000    0.025000000000    0.000000000000      24
   -0.237500000000    0.025000000000    0.000000000000      24
   -0.225000000000    0.025000000000    0.000000000000      24
   -0.212500000000    0.025000000000    0.000000000000      24
   -0.200000000000    0.025000000000    0.000000000000      24
   -0.187500000000    0.025000000000    0.000000000000      24
   -0.175000000000    0.025000000000    0.000000000000      24
   -0.162500000000    0.025000000000    0.000000000000      24
   -0.150000000000    0.025000000000    0.000000000000      24
   -0.137500000000    0.025000000000    0.000000000000      24
   -0.125000000000    0.025000000000    0.000000000000      24
   -0.112500000000    0.025000000000    0.000000000000      24
   -0.100000000000    0.025000000000    0.000000000000      24
   -0.087500000000    0.025000000000    0.000000000000      24
   -0.075000000000    0.025000000000    0.000000000000      24
   -0.062500000000    0.025000000000    0.000000000000      24
   -0.050000000000    0.025000000000    0.000000000000      24
   -0.037500000000    0.025000000000    0.000000000000      24
   -0.025000000000    0.025000000000    0.000000000000      12
    0.037500000000    0.037500000000    0.000000000000       6
    0.050000000000    0.037500000000    0.000000000000      24
    0.062500000000    0.037500000000    0.000000000000      24
    0.075000000000    0.037500000000    0.000000000000      24
    0.087500000000    0.037500000000    0.000000000000      24
    0.100000000000    0.037500000000    0.000000000000      24
    0.112500000000    0.037500000000    0.000000000000      24
    0.125000000000    0.037500000000    0.000000000000      24
    0.137500000000    0.037500000000    0.000000000000      24
    0.150000000000    0.037500000000    0.000000000000      24
    0.162500000000    0.037500000000    0.000000000000      24
    0.175000000000    0.037500000000    0.000000000000      24
    0.187500000000    0.037500000000    0.000000000000      24
    0.200000000000    0.037500000000    0.000000000000      24
    0.212500000000    0.037500000000    0.000000000000      24
    0.225000000000    0.037500000000    0.000000000000      24
    0.237500000000    0.037500000000    0.000000000000      24
    0.250000000000    0.037500000000    0.000000000000      24
    0.262500000000    0.037500000000    0.000000000000      24
    0.275000000000    0.037500000000    0.000000000000      24
    0.287500000000    0.037500000000    0.000000000000      24
    0.300000000000    0.037500000000    0.000000000000      24
    0.312500000000    0.037500000000    0.000000000000      24
    0.325000000000    0.037500000000    0.000000000000      24
    0.337500000000    0.037500000000    0.000000000000      24
    0.350000000000    0.037500000000    0.000000000000      24
    0.362500000000    0.037500000000    0.000000000000      24
    0.375000000000    0.037500000000    0.000000000000      24
    0.387500000000    0.037500000000    0.000000000000      24
    0.400000000000    0.037500000000    0.000000000000      24
    0.412500000000    0.037500000000    0.000000000000      24
    0.425000000000    0.037500000000    0.000000000000      24
    0.437500000000    0.037500000000    0.000000000000      24
    0.450000000000    0.037500000000    0.000000000000      24
    0.462500000000    0.037500000000    0.000000000000      24
    0.475000000000    0.037500000000    0.000000000000      24
    0.487500000000    0.037500000000    0.000000000000      24
    0.500000000000    0.037500000000    0.000000000000      24
   -0.487500000000    0.037500000000    0.000000000000      24
   -0.475000000000    0.037500000000    0.000000000000      24
   -0.462500000000    0.037500000000    0.000000000000      24
   -0.450000000000    0.037500000000    0.000000000000      24
   -0.437500000000    0.037500000000    0.000000000000      24
   -0.425000000000    0.037500000000    0.000000000000      24
   -0.412500000000    0.037500000000    0.000000000000      24
   -0.400000000000    0.037500000000    0.000000000000      24
   -0.387500000000    0.037500000000    0.000000000000      24
   -0.375000000000    0.037500000000    0.000000000000      24
   -0.362500000000    0.037500000000    0.000000000000      24
   -0.350000000000    0.037500000000    0.000000000000      24
   -0.337500000000    0.037500000000    0.000000000000      24
   -0.325000000000    0.037500000000    0.000000000000      24
   -0.312500000000    0.037500000000    0.000000000000      24
   -0.300000000000    0.037500000000    0.000000000000      24
   -0.287500000000    0.037500000000    0.000000000000      24
   -0.275000000000    0.037500000000    0.000000000000      24
   -0.262500000000    0.037500000000    0.000000000000      24
   -0.250000000000    0.037500000000    0.000000000000      24
   -0.237500000000    0.037500000000    0.000000000000      24
   -0.225000000000    0.037500000000    0.000000000000      24
   -0.212500000000    0.037500000000    0.000000000000      24
   -0.200000000000    0.037500000000    0.000000000000      24
   -0.187500000000    0.037500000000    0.000000000000      24
   -0.175000000000    0.037500000000    0.000000000000      24
   -0.162500000000    0.037500000000    0.000000000000      24
   -0.150000000000    0.037500000000    0.000000000000      24
   -0.137500000000    0.037500000000    0.000000000000      24
   -0.125000000000    0.037500000000    0.000000000000      24
   -0.112500000000    0.037500000000    0.000000000000      24
   -0.100000000000    0.037500000000    0.000000000000      24
   -0.087500000000    0.037500000000    0.000000000000      24
   -0.075000000000    0.037500000000    0.000000000000      24
   -0.062500000000    0.037500000000    0.000000000000      24
   -0.050000000000    0.037500000000    0.000000000000      24
   -0.037500000000    0.037500000000    0.000000000000      12
    0.050000000000    0.050000000000    0.000000000000       6
    0.062500000000    0.050000000000    0.000000000000      24
    0.075000000000    0.050000000000    0.000000000000      24
    0.087500000000    0.050000000000    0.000000000000      24
    0.100000000000    0.050000000000    0.000000000000      24
    0.112500000000    0.050000000000    0.000000000000      24
    0.125000000000    0.050000000000    0.000000000000      24
    0.137500000000    0.050000000000    0.000000000000      24
    0.150000000000    0.050000000000    0.000000000000      24
    0.162500000000    0.050000000000    0.000000000000      24
    0.175000000000    0.050000000000    0.000000000000      24
    0.187500000000    0.050000000000    0.000000000000      24
    0.200000000000    0.050000000000    0.000000000000      24
    0.212500000000    0.050000000000    0.000000000000      24
    0.225000000000    0.050000000000    0.000000000000      24
    0.237500000000    0.050000000000    0.000000000000      24
    0.250000000000    0.050000000000    0.000000000000      24
    0.262500000000    0.050000000000    0.000000000000      24
    0.275000000000    0.050000000000    0.000000000000      24
    0.287500000000    0.050000000000    0.000000000000      24
    0.300000000000    0.050000000000    0.000000000000      24
    0.312500000000    0.050000000000    0.000000000000      24
    0.325000000000    0.050000000000    0.000000000000      24
    0.337500000000    0.050000000000    0.000000000000      24
    0.350000000000    0.050000000000    0.000000000000      24
    0.362500000000    0.050000000000    0.000000000000      24
    0.375000000000    0.050000000000    0.000000000000      24
    0.387500000000    0.050000000000    0.000000000000      24
    0.400000000000    0.050000000000    0.000000000000      24
    0.412500000000    0.050000000000    0.000000000000      24
    0.425000000000    0.050000000000    0.000000000000      24
    0.437500000000    0.050000000000    0.000000000000      24
    0.450000000000    0.050000000000    0.000000000000      24
    0.462500000000    0.050000000000    0.000000000000      24
    0.475000000000    0.050000000000    0.000000000000      24
    0.487500000000    0.050000000000    0.000000000000      24
    0.500000000000    0.050000000000    0.000000000000      24
   -0.487500000000    0.050000000000    0.000000000000      24
   -0.475000000000    0.050000000000    0.000000000000      24
   -0.462500000000    0.050000000000    0.000000000000      24
   -0.450000000000    0.050000000000    0.000000000000      24
   -0.437500000000    0.050000000000    0.000000000000      24
   -0.425000000000    0.050000000000    0.000000000000      24
   -0.412500000000    0.050000000000    0.000000000000      24
   -0.400000000000    0.050000000000    0.000000000000      24
   -0.387500000000    0.050000000000    0.000000000000      24
   -0.375000000000    0.050000000000    0.000000000000      24
   -0.362500000000    0.050000000000    0.000000000000      24
   -0.350000000000    0.050000000000    0.000000000000      24
   -0.337500000000    0.050000000000    0.000000000000      24
   -0.325000000000    0.050000000000    0.000000000000      24
   -0.312500000000    0.050000000000    0.000000000000      24
   -0.300000000000    0.050000000000    0.000000000000      24
   -0.287500000000    0.050000000000    0.000000000000      24
   -0.275000000000    0.050000000000    0.000000000000      24
   -0.262500000000    0.050000000000    0.000000000000      24
   -0.250000000000    0.050000000000    0.000000000000      24
   -0.237500000000    0.050000000000    0.000000000000      24
   -0.225000000000    0.050000000000    0.000000000000      24
   -0.212500000000    0.050000000000    0.000000000000      24
   -0.200000000000    0.050000000000    0.000000000000      24
   -0.187500000000    0.050000000000    0.000000000000      24
   -0.175000000000    0.050000000000    0.000000000000      24
   -0.162500000000    0.050000000000    0.000000000000      24
   -0.150000000000    0.050000000000    0.000000000000      24
   -0.137500000000    0.050000000000    0.000000000000      24
   -0.125000000000    0.050000000000    0.000000000000      24
   -0.112500000000    0.050000000000    0.000000000000      24
   -0.100000000000    0.050000000000    0.000000000000      24
   -0.087500000000    0.050000000000    0.000000000000      24
   -0.075000000000    0.050000000000    0.000000000000      24
   -0.062500000000    0.050000000000    0.000000000000      24
   -0.050000000000    0.050000000000    0.000000000000      12
    0.062500000000    0.062500000000    0.000000000000       6
    0.075000000000    0.062500000000    0.000000000000      24
    0.087500000000    0.062500000000    0.000000000000      24
    0.100000000000    0.062500000000    0.000000000000      24
    0.112500000000    0.062500000000    0.000000000000      24
    0.125000000000    0.062500000000    0.000000000000      24
    0.137500000000    0.062500000000    0.000000000000      24
    0.150000000000    0.062500000000    0.000000000000      24
    0.162500000000    0.062500000000    0.000000000000      24
    0.175000000000    0.062500000000    0.000000000000      24
    0.187500000000    0.062500000000    0.000000000000      24
    0.200000000000    0.062500000000    0.000000000000      24
    0.212500000000    0.062500000000    0.000000000000      24
    0.225000000000    0.062500000000    0.000000000000      24
    0.237500000000    0.062500000000    0.000000000000      24
    0.250000000000    0.062500000000    0.000000000000      24
    0.262500000000    0.062500000000    0.000000000000      24
    0.275000000000    0.062500000000    0.000000000000      24
    0.287500000000    0.062500000000    0.000000000000      24
    0.300000000000    0.062500000000    0.000000000000      24
    0.312500000000    0.062500000000    0.000000000000      24
    0.325000000000    0.062500000000    0.000000000000      24
    0.337500000000    0.062500000000    0.000000000000      24
    0.350000000000    0.062500000000    0.000000000000      24
    0.362500000000    0.062500000000    0.000000000000      24
    0.375000000000    0.062500000000    0.000000000000      24
    0.387500000000    0.062500000000    0.000000000000      24
    0.400000000000    0.062500000000    0.000000000000      24
    0.412500000000    0.062500000000    0.000000000000      24
    0.425000000000    0.062500000000    0.000000000000      24
    0.437500000000    0.062500000000    0.000000000000      24
    0.450000000000    0.062500000000    0.000000000000      24
    0.462500000000    0.062500000000    0.000000000000      24
    0.475000000000    0.062500000000    0.000000000000      24
    0.487500000000    0.062500000000    0.000000000000      24
    0.500000000000    0.062500000000    0.000000000000      24
   -0.487500000000    0.062500000000    0.000000000000      24
   -0.475000000000    0.062500000000    0.000000000000      24
   -0.462500000000    0.062500000000    0.000000000000      24
   -0.450000000000    0.062500000000    0.000000000000      24
   -0.437500000000    0.062500000000    0.000000000000      24
   -0.425000000000    0.062500000000    0.000000000000      24
   -0.412500000000    0.062500000000    0.000000000000      24
   -0.400000000000    0.062500000000    0.000000000000      24
   -0.387500000000    0.062500000000    0.000000000000      24
   -0.375000000000    0.062500000000    0.000000000000      24
   -0.362500000000    0.062500000000    0.000000000000      24
   -0.350000000000    0.062500000000    0.000000000000      24
   -0.337500000000    0.062500000000    0.000000000000      24
   -0.325000000000    0.062500000000    0.000000000000      24
   -0.312500000000    0.062500000000    0.000000000000      24
   -0.300000000000    0.062500000000    0.000000000000      24
   -0.287500000000    0.062500000000    0.000000000000      24
   -0.275000000000    0.062500000000    0.000000000000      24
   -0.262500000000    0.062500000000    0.000000000000      24
   -0.250000000000    0.062500000000    0.000000000000      24
   -0.237500000000    0.062500000000    0.000000000000      24
   -0.225000000000    0.062500000000    0.000000000000      24
   -0.212500000000    0.062500000000    0.000000000000      24
   -0.200000000000    0.062500000000    0.000000000000      24
   -0.187500000000    0.062500000000    0.000000000000      24
   -0.175000000000    0.062500000000    0.000000000000      24
   -0.162500000000    0.062500000000    0.000000000000      24
   -0.150000000000    0.062500000000    0.000000000000      24
   -0.137500000000    0.062500000000    0.000000000000      24
   -0.125000000000    0.062500000000    0.000000000000      24
   -0.112500000000    0.062500000000    0.000000000000      24
   -0.100000000000    0.062500000000    0.000000000000      24
   -0.087500000000    0.062500000000    0.000000000000      24
   -0.075000000000    0.062500000000    0.000000000000      24
   -0.062500000000    0.062500000000    0.000000000000      12
    0.075000000000    0.075000000000    0.000000000000       6
    0.087500000000    0.075000000000    0.000000000000      24
    0.100000000000    0.075000000000    0.000000000000      24
    0.112500000000    0.075000000000    0.000000000000      24
    0.125000000000    0.075000000000    0.000000000000      24
    0.137500000000    0.075000000000    0.000000000000      24
    0.150000000000    0.075000000000    0.000000000000      24
    0.162500000000    0.075000000000    0.000000000000      24
    0.175000000000    0.075000000000    0.000000000000      24
    0.187500000000    0.075000000000    0.000000000000      24
    0.200000000000    0.075000000000    0.000000000000      24
    0.212500000000    0.075000000000    0.000000000000      24
    0.225000000000    0.075000000000    0.000000000000      24
    0.237500000000    0.075000000000    0.000000000000      24
    0.250000000000    0.075000000000    0.000000000000      24
    0.262500000000    0.075000000000    0.000000000000      24
    0.275000000000    0.075000000000    0.000000000000      24
    0.287500000000    0.075000000000    0.000000000000      24
    0.300000000000    0.075000000000    0.000000000000      24
    0.312500000000    0.075000000000    0.000000000000      24
    0.325000000000    0.075000000000    0.000000000000      24
    0.337500000000    0.075000000000    0.000000000000      24
    0.350000000000    0.075000000000    0.000000000000      24
    0.362500000000    0.075000000000    0.000000000000      24
    0.375000000000    0.075000000000    0.000000000000      24
    0.387500000000    0.075000000000    0.000000000000      24
    0.400000000000    0.075000000000    0.000000000000      24
    0.412500000000    0.075000000000    0.000000000000      24
    0.425000000000    0.075000000000    0.000000000000      24
    0.437500000000    0.075000000000    0.000000000000      24
    0.450000000000    0.075000000000    0.000000000000      24
    0.462500000000    0.075000000000    0.000000000000      24
    0.475000000000    0.075000000000    0.000000000000      24
    0.487500000000    0.075000000000    0.000000000000      24
    0.500000000000    0.075000000000    0.000000000000      24
   -0.487500000000    0.075000000000    0.000000000000      24
   -0.475000000000    0.075000000000    0.000000000000      24
   -0.462500000000    0.075000000000    0.000000000000      24
   -0.450000000000    0.075000000000    0.000000000000      24
   -0.437500000000    0.075000000000    0.000000000000      24
   -0.425000000000    0.075000000000    0.000000000000      24
   -0.412500000000    0.075000000000    0.000000000000      24
   -0.400000000000    0.075000000000    0.000000000000      24
   -0.387500000000    0.075000000000    0.000000000000      24
   -0.375000000000    0.075000000000    0.000000000000      24
   -0.362500000000    0.075000000000    0.000000000000      24
   -0.350000000000    0.075000000000    0.000000000000      24
   -0.337500000000    0.075000000000    0.000000000000      24
   -0.325000000000    0.075000000000    0.000000000000      24
   -0.312500000000    0.075000000000    0.000000000000      24
   -0.300000000000    0.075000000000    0.000000000000      24
   -0.287500000000    0.075000000000    0.000000000000      24
   -0.275000000000    0.075000000000    0.000000000000      24
   -0.262500000000    0.075000000000    0.000000000000      24
   -0.250000000000    0.075000000000    0.000000000000      24
   -0.237500000000    0.075000000000    0.000000000000      24
   -0.225000000000    0.075000000000    0.000000000000      24
   -0.212500000000    0.075000000000    0.000000000000      24