Generated by cif2cell 2.0.0.  :  Failed to get author information, No journal information.
   6.211380
  1.000000000000000   0.000000000000000   0.000000000000000
  0.010571598023371   1.000058431805068   0.000000000000000
  0.009939554799361  -0.011005980627764   1.000793310952811
   H   I   N  Pb
   4   3   1   1
Direct
  0.894583000000000   0.108106000000000   0.940583000000000 
  0.966605000000000   0.844931000000000   0.950708000000000 
  0.996633000000000   0.006113000000000   0.169519000000000 
  0.157918000000000   0.036731000000000   0.951099000000000 
  0.490080000000000   0.510599000000000   0.993689000000000 
  0.508911000000000   0.003443000000000   0.496579000000000 
  0.997230000000000   0.491582000000000   0.495999000000000 
  0.003994000000000   0.998881000000000   0.003043000000000 
  0.497047000000000   0.503614000000000   0.493781000000000 
