PREC = Accurate
ENCUT = 500
EDIFF = 1E-06
EDIFFG = -0.01
IBRION = 2
ISIF = 3
ISMEAR = 1
SIGMA = 0.2
NSW = 150
ALGO = Fast
LREAL = Auto
LCHARG = .TRUE.
IVDW = 11