DFT-D3 Correction
IVDW = 11

Global Parameters
ISTART = 1
ISPIN = 1
LREAL = .FALSE.
PREC = Accurate
ENCUT = 500
EDIFF = 1E-06
EDIFFG = -0.01
LWAVE = .TRUE.
LCHARG = .TRUE.
ADDGRID= .TRUE.
LASPH = .TRUE.
ALGO = Normal

Lattice Relaxation
NSW = 200
IBRION = 2
ISIF = 3
ISMEAR = 0
SIGMA = 0.05