PREC = Accurate
ENCUT = 520
EDIFF = 1E-06
EDIFFG = -0.01
IBRION = 2
ISIF = 3
NSW = 150
ISMEAR = 1
SIGMA = 0.2
ALGO = Fast
LREAL = Auto
LCHARG = .FALSE.
IVDW = 12