DFT-D3 Correction
IVDW = 11

Global Parameters
ISTART = 1
ISPIN = 1
LREAL = .FALSE.
LWAVE = .TRUE.
LCHARG = .TRUE.
ADDGRID= .TRUE.
LASPH = .TRUE.
PREC = Accurate

Electronic Relaxation
EDIFF = 1E-6
ALGO = Normal

Ionic Relaxation
NSW = 300
IBRION = 2
ISIF = 3
EDIFFG = -0.02

Smearing
ISMEAR = 1
SIGMA = 0.2