PREC = Accurate
ENCUT = 500
EDIFF = 1.0E-06
EDIFFG = -0.01
IBRION = 2
ISIF = 3
NSW = 200
ISMEAR = 1
SIGMA = 0.2
ALGO = Fast
LREAL = Auto
LCHARG = .FALSE.
IVDW = 11