PREC = Accurate
ENCUT = 500
EDIFF = 1E-6
EDIFFG = -0.02
IBRION = 2
ISIF = 3
ISMEAR = 1
SIGMA = 0.2
NSW = 200
ALGO = Fast
LREAL = Auto
LCHARG = .FALSE.
IVDW = 12
LASPH = .TRUE.
LMAXMIX = 6