Bi6
1.0
        4.6095862389         0.0000000000         0.0000000000
       -2.3047931194         3.9920187838         0.0000000000
        0.0000000000         0.0000000000        11.9754734039
   Bi
    6
Direct
     0.000000000         0.000000000         0.267215997
     0.000000000         0.000000000         0.732784033
     0.666666687         0.333333343         0.600549340
     0.666666687         0.333333343         0.066117339
     0.333333343         0.666666687         0.933882654
     0.333333343         0.666666687         0.399450660
