G   15   15    1    0.020               # Parameters to Generate KPOINTS (Don't Edit This Line) 
     225
Reciprocal lattice
    0.000000000000    0.000000000000    0.000000000000       1
    0.066666666667    0.000000000000    0.000000000000       1
    0.133333333333    0.000000000000    0.000000000000       1
    0.200000000000    0.000000000000    0.000000000000       1
    0.266666666667    0.000000000000    0.000000000000       1
    0.333333333333    0.000000000000    0.000000000000       1
    0.400000000000    0.000000000000    0.000000000000       1
    0.466666666667    0.000000000000    0.000000000000       1
   -0.466666666667    0.000000000000    0.000000000000       1
   -0.400000000000    0.000000000000    0.000000000000       1
   -0.333333333333    0.000000000000    0.000000000000       1
   -0.266666666667    0.000000000000    0.000000000000       1
   -0.200000000000    0.000000000000    0.000000000000       1
   -0.133333333333    0.000000000000    0.000000000000       1
   -0.066666666667    0.000000000000    0.000000000000       1
    0.000000000000    0.066666666667    0.000000000000       1
    0.066666666667    0.066666666667    0.000000000000       1
    0.133333333333    0.066666666667    0.000000000000       1
    0.200000000000    0.066666666667    0.000000000000       1
    0.266666666667    0.066666666667    0.000000000000       1
    0.333333333333    0.066666666667    0.000000000000       1
    0.400000000000    0.066666666667    0.000000000000       1
    0.466666666667    0.066666666667    0.000000000000       1
   -0.466666666667    0.066666666667    0.000000000000       1
   -0.400000000000    0.066666666667    0.000000000000       1
   -0.333333333333    0.066666666667    0.000000000000       1
   -0.266666666667    0.066666666667    0.000000000000       1
   -0.200000000000    0.066666666667    0.000000000000       1
   -0.133333333333    0.066666666667    0.000000000000       1
   -0.066666666667    0.066666666667    0.000000000000       1
    0.000000000000    0.133333333333    0.000000000000       1
    0.066666666667    0.133333333333    0.000000000000       1
    0.133333333333    0.133333333333    0.000000000000       1
    0.200000000000    0.133333333333    0.000000000000       1
    0.266666666667    0.133333333333    0.000000000000       1
    0.333333333333    0.133333333333    0.000000000000       1
    0.400000000000    0.133333333333    0.000000000000       1
    0.466666666667    0.133333333333    0.000000000000       1
   -0.466666666667    0.133333333333    0.000000000000       1
   -0.400000000000    0.133333333333    0.000000000000       1
   -0.333333333333    0.133333333333    0.000000000000       1
   -0.266666666667    0.133333333333    0.000000000000       1
   -0.200000000000    0.133333333333    0.000000000000       1
   -0.133333333333    0.133333333333    0.000000000000       1
   -0.066666666667    0.133333333333    0.000000000000       1
    0.000000000000    0.200000000000    0.000000000000       1
    0.066666666667    0.200000000000    0.000000000000       1
    0.133333333333    0.200000000000    0.000000000000       1
    0.200000000000    0.200000000000    0.000000000000       1
    0.266666666667    0.200000000000    0.000000000000       1
    0.333333333333    0.200000000000    0.000000000000       1
    0.400000000000    0.200000000000    0.000000000000       1
    0.466666666667    0.200000000000    0.000000000000       1
   -0.466666666667    0.200000000000    0.000000000000       1
   -0.400000000000    0.200000000000    0.000000000000       1
   -0.333333333333    0.200000000000    0.000000000000       1
   -0.266666666667    0.200000000000    0.000000000000       1
   -0.200000000000    0.200000000000    0.000000000000       1
   -0.133333333333    0.200000000000    0.000000000000       1
   -0.066666666667    0.200000000000    0.000000000000       1
    0.000000000000    0.266666666667    0.000000000000       1
    0.066666666667    0.266666666667    0.000000000000       1
    0.133333333333    0.266666666667    0.000000000000       1
    0.200000000000    0.266666666667    0.000000000000       1
    0.266666666667    0.266666666667    0.000000000000       1
    0.333333333333    0.266666666667    0.000000000000       1
    0.400000000000    0.266666666667    0.000000000000       1
    0.466666666667    0.266666666667    0.000000000000       1
   -0.466666666667    0.266666666667    0.000000000000       1
   -0.400000000000    0.266666666667    0.000000000000       1
   -0.333333333333    0.266666666667    0.000000000000       1
   -0.266666666667    0.266666666667    0.000000000000       1
   -0.200000000000    0.266666666667    0.000000000000       1
   -0.133333333333    0.266666666667    0.000000000000       1
   -0.066666666667    0.266666666667    0.000000000000       1
    0.000000000000    0.333333333333    0.000000000000       1
    0.066666666667    0.333333333333    0.000000000000       1
    0.133333333333    0.333333333333    0.000000000000       1
    0.200000000000    0.333333333333    0.000000000000       1
    0.266666666667    0.333333333333    0.000000000000       1
    0.333333333333    0.333333333333    0.000000000000       1
    0.400000000000    0.333333333333    0.000000000000       1
    0.466666666667    0.333333333333    0.000000000000       1
   -0.466666666667    0.333333333333    0.000000000000       1
   -0.400000000000    0.333333333333    0.000000000000       1
   -0.333333333333    0.333333333333    0.000000000000       1
   -0.266666666667    0.333333333333    0.000000000000       1
   -0.200000000000    0.333333333333    0.000000000000       1
   -0.133333333333    0.333333333333    0.000000000000       1
   -0.066666666667    0.333333333333    0.000000000000       1
    0.000000000000    0.400000000000    0.000000000000       1
    0.066666666667    0.400000000000    0.000000000000       1
    0.133333333333    0.400000000000    0.000000000000       1
    0.200000000000    0.400000000000    0.000000000000       1
    0.266666666667    0.400000000000    0.000000000000       1
    0.333333333333    0.400000000000    0.000000000000       1
    0.400000000000    0.400000000000    0.000000000000       1
    0.466666666667    0.400000000000    0.000000000000       1
   -0.466666666667    0.400000000000    0.000000000000       1
   -0.400000000000    0.400000000000    0.000000000000       1
   -0.333333333333    0.400000000000    0.000000000000       1
   -0.266666666667    0.400000000000    0.000000000000       1
   -0.200000000000    0.400000000000    0.000000000000       1
   -0.133333333333    0.400000000000    0.000000000000       1
   -0.066666666667    0.400000000000    0.000000000000       1
    0.000000000000    0.466666666667    0.000000000000       1
    0.066666666667    0.466666666667    0.000000000000       1
    0.133333333333    0.466666666667    0.000000000000       1
    0.200000000000    0.466666666667    0.000000000000       1
    0.266666666667    0.466666666667    0.000000000000       1
    0.333333333333    0.466666666667    0.000000000000       1
    0.400000000000    0.466666666667    0.000000000000       1
    0.466666666667    0.466666666667    0.000000000000       1
   -0.466666666667    0.466666666667    0.000000000000       1
   -0.400000000000    0.466666666667    0.000000000000       1
   -0.333333333333    0.466666666667    0.000000000000       1
   -0.266666666667    0.466666666667    0.000000000000       1
   -0.200000000000    0.466666666667    0.000000000000       1
   -0.133333333333    0.466666666667    0.000000000000       1
   -0.066666666667    0.466666666667    0.000000000000       1
    0.000000000000   -0.466666666667    0.000000000000       1
    0.066666666667   -0.466666666667    0.000000000000       1
    0.133333333333   -0.466666666667    0.000000000000       1
    0.200000000000   -0.466666666667    0.000000000000       1
    0.266666666667   -0.466666666667    0.000000000000       1
    0.333333333333   -0.466666666667    0.000000000000       1
    0.400000000000   -0.466666666667    0.000000000000       1
    0.466666666667   -0.466666666667    0.000000000000       1
   -0.466666666667   -0.466666666667    0.000000000000       1
   -0.400000000000   -0.466666666667    0.000000000000       1
   -0.333333333333   -0.466666666667    0.000000000000       1
   -0.266666666667   -0.466666666667    0.000000000000       1
   -0.200000000000   -0.466666666667    0.000000000000       1
   -0.133333333333   -0.466666666667    0.000000000000       1
   -0.066666666667   -0.466666666667    0.000000000000       1
    0.000000000000   -0.400000000000    0.000000000000       1
    0.066666666667   -0.400000000000    0.000000000000       1
    0.133333333333   -0.400000000000    0.000000000000       1
    0.200000000000   -0.400000000000    0.000000000000       1
    0.266666666667   -0.400000000000    0.000000000000       1
    0.333333333333   -0.400000000000    0.000000000000       1
    0.400000000000   -0.400000000000    0.000000000000       1
    0.466666666667   -0.400000000000    0.000000000000       1
   -0.466666666667   -0.400000000000    0.000000000000       1
   -0.400000000000   -0.400000000000    0.000000000000       1
   -0.333333333333   -0.400000000000    0.000000000000       1
   -0.266666666667   -0.400000000000    0.000000000000       1
   -0.200000000000   -0.400000000000    0.000000000000       1
   -0.133333333333   -0.400000000000    0.000000000000       1
   -0.066666666667   -0.400000000000    0.000000000000       1
    0.000000000000   -0.333333333333    0.000000000000       1
    0.066666666667   -0.333333333333    0.000000000000       1
    0.133333333333   -0.333333333333    0.000000000000       1
    0.200000000000   -0.333333333333    0.000000000000       1
    0.266666666667   -0.333333333333    0.000000000000       1
    0.333333333333   -0.333333333333    0.000000000000       1
    0.400000000000   -0.333333333333    0.000000000000       1
    0.466666666667   -0.333333333333    0.000000000000       1
   -0.466666666667   -0.333333333333    0.000000000000       1
   -0.400000000000   -0.333333333333    0.000000000000       1
   -0.333333333333   -0.333333333333    0.000000000000       1
   -0.266666666667   -0.333333333333    0.000000000000       1
   -0.200000000000   -0.333333333333    0.000000000000       1
   -0.133333333333   -0.333333333333    0.000000000000       1
   -0.066666666667   -0.333333333333    0.000000000000       1
    0.000000000000   -0.266666666667    0.000000000000       1
    0.066666666667   -0.266666666667    0.000000000000       1
    0.133333333333   -0.266666666667    0.000000000000       1
    0.200000000000   -0.266666666667    0.000000000000       1
    0.266666666667   -0.266666666667    0.000000000000       1
    0.333333333333   -0.266666666667    0.000000000000       1
    0.400000000000   -0.266666666667    0.000000000000       1
    0.466666666667   -0.266666666667    0.000000000000       1
   -0.466666666667   -0.266666666667    0.000000000000       1
   -0.400000000000   -0.266666666667    0.000000000000       1
   -0.333333333333   -0.266666666667    0.000000000000       1
   -0.266666666667   -0.266666666667    0.000000000000       1
   -0.200000000000   -0.266666666667    0.000000000000       1
   -0.133333333333   -0.266666666667    0.000000000000       1
   -0.066666666667   -0.266666666667    0.000000000000       1
    0.000000000000   -0.200000000000    0.000000000000       1
    0.066666666667   -0.200000000000    0.000000000000       1
    0.133333333333   -0.200000000000    0.000000000000       1
    0.200000000000   -0.200000000000    0.000000000000       1
    0.266666666667   -0.200000000000    0.000000000000       1
    0.333333333333   -0.200000000000    0.000000000000       1
    0.400000000000   -0.200000000000    0.000000000000       1
    0.466666666667   -0.200000000000    0.000000000000       1
   -0.466666666667   -0.200000000000    0.000000000000       1
   -0.400000000000   -0.200000000000    0.000000000000       1
   -0.333333333333   -0.200000000000    0.000000000000       1
   -0.266666666667   -0.200000000000    0.000000000000       1
   -0.200000000000   -0.200000000000    0.000000000000       1
   -0.133333333333   -0.200000000000    0.000000000000       1
   -0.066666666667   -0.200000000000    0.000000000000       1
    0.000000000000   -0.133333333333    0.000000000000       1
    0.066666666667   -0.133333333333    0.000000000000       1
    0.133333333333   -0.133333333333    0.000000000000       1
    0.200000000000   -0.133333333333    0.000000000000       1
    0.266666666667   -0.133333333333    0.000000000000       1
    0.333333333333   -0.133333333333    0.000000000000       1
    0.400000000000   -0.133333333333    0.000000000000       1
    0.466666666667   -0.133333333333    0.000000000000       1
   -0.466666666667   -0.133333333333    0.000000000000       1
   -0.400000000000   -0.133333333333    0.000000000000       1
   -0.333333333333   -0.133333333333    0.000000000000       1
   -0.266666666667   -0.133333333333    0.000000000000       1
   -0.200000000000   -0.133333333333    0.000000000000       1
   -0.133333333333   -0.133333333333    0.000000000000       1
   -0.066666666667   -0.133333333333    0.000000000000       1
    0.000000000000   -0.066666666667    0.000000000000       1
    0.066666666667   -0.066666666667    0.000000000000       1
    0.133333333333   -0.066666666667    0.000000000000       1
    0.200000000000   -0.066666666667    0.000000000000       1
    0.266666666667   -0.066666666667    0.000000000000       1
    0.333333333333   -0.066666666667    0.000000000000       1
    0.400000000000   -0.066666666667    0.000000000000       1
    0.466666666667   -0.066666666667    0.000000000000       1
   -0.466666666667   -0.066666666667    0.000000000000       1
   -0.400000000000   -0.066666666667    0.000000000000       1
   -0.333333333333   -0.066666666667    0.000000000000       1
   -0.266666666667   -0.066666666667    0.000000000000       1
   -0.200000000000   -0.066666666667    0.000000000000       1
   -0.133333333333   -0.066666666667    0.000000000000       1
   -0.066666666667   -0.066666666667    0.000000000000       1
