 In Se                                  
   1.0000000000000000     
     4.1077889223619524    0.0000000000000002    0.0000000000000000
     2.0538944611809762    3.5574495601493767   -0.0000000000000000
    -0.0000000000000001   -0.0000000000000000   16.7550562063312434
   In   Se
     2     3
Direct
  0.8333320883792297  0.8333320958786672  0.6240071544075274
  0.4999961739065952  0.4999961661310124  0.3712106820332650
  0.1666629534250674  0.1666629446166752  0.2964426132520908
  0.1666658355827408  0.1666658426400645  0.7033084966421995
  0.4999979487063655  0.4999979507335865  0.5241444932206486

  0.00000000E+00  0.00000000E+00  0.00000000E+00
  0.00000000E+00  0.00000000E+00  0.00000000E+00
  0.00000000E+00  0.00000000E+00  0.00000000E+00
  0.00000000E+00  0.00000000E+00  0.00000000E+00
  0.00000000E+00  0.00000000E+00  0.00000000E+00
