G   69   69    1    0.005             # Do Not Edit This Line! 
     432
Reciprocal lattice
    0.000000000000    0.000000000000    0.000000000000       1
    0.014492753623    0.000000000000    0.000000000000       6
    0.028985507246    0.000000000000    0.000000000000       6
    0.043478260870    0.000000000000    0.000000000000       6
    0.057971014493    0.000000000000    0.000000000000       6
    0.072463768116    0.000000000000    0.000000000000       6
    0.086956521739    0.000000000000    0.000000000000       6
    0.101449275362    0.000000000000    0.000000000000       6
    0.115942028986    0.000000000000    0.000000000000       6
    0.130434782609    0.000000000000    0.000000000000       6
    0.144927536232    0.000000000000    0.000000000000       6
    0.159420289855    0.000000000000    0.000000000000       6
    0.173913043478    0.000000000000    0.000000000000       6
    0.188405797101    0.000000000000    0.000000000000       6
    0.202898550725    0.000000000000    0.000000000000       6
    0.217391304348    0.000000000000    0.000000000000       6
    0.231884057971    0.000000000000    0.000000000000       6
    0.246376811594    0.000000000000    0.000000000000       6
    0.260869565217    0.000000000000    0.000000000000       6
    0.275362318841    0.000000000000    0.000000000000       6
    0.289855072464    0.000000000000    0.000000000000       6
    0.304347826087    0.000000000000    0.000000000000       6
    0.318840579710    0.000000000000    0.000000000000       6
    0.333333333333    0.000000000000    0.000000000000       6
    0.347826086957    0.000000000000    0.000000000000       6
    0.362318840580    0.000000000000    0.000000000000       6
    0.376811594203    0.000000000000    0.000000000000       6
    0.391304347826    0.000000000000    0.000000000000       6
    0.405797101449    0.000000000000    0.000000000000       6
    0.420289855072    0.000000000000    0.000000000000       6
    0.434782608696    0.000000000000    0.000000000000       6
    0.449275362319    0.000000000000    0.000000000000       6
    0.463768115942    0.000000000000    0.000000000000       6
    0.478260869565    0.000000000000    0.000000000000       6
    0.492753623188    0.000000000000    0.000000000000       6
    0.014492753623    0.014492753623    0.000000000000       6
    0.028985507246    0.014492753623    0.000000000000      12
    0.043478260870    0.014492753623    0.000000000000      12
    0.057971014493    0.014492753623    0.000000000000      12
    0.072463768116    0.014492753623    0.000000000000      12
    0.086956521739    0.014492753623    0.000000000000      12
    0.101449275362    0.014492753623    0.000000000000      12
    0.115942028986    0.014492753623    0.000000000000      12
    0.130434782609    0.014492753623    0.000000000000      12
    0.144927536232    0.014492753623    0.000000000000      12
    0.159420289855    0.014492753623    0.000000000000      12
    0.173913043478    0.014492753623    0.000000000000      12
    0.188405797101    0.014492753623    0.000000000000      12
    0.202898550725    0.014492753623    0.000000000000      12
    0.217391304348    0.014492753623    0.000000000000      12
    0.231884057971    0.014492753623    0.000000000000      12
    0.246376811594    0.014492753623    0.000000000000      12
    0.260869565217    0.014492753623    0.000000000000      12
    0.275362318841    0.014492753623    0.000000000000      12
    0.289855072464    0.014492753623    0.000000000000      12
    0.304347826087    0.014492753623    0.000000000000      12
    0.318840579710    0.014492753623    0.000000000000      12
    0.333333333333    0.014492753623    0.000000000000      12
    0.347826086957    0.014492753623    0.000000000000      12
    0.362318840580    0.014492753623    0.000000000000      12
    0.376811594203    0.014492753623    0.000000000000      12
    0.391304347826    0.014492753623    0.000000000000      12
    0.405797101449    0.014492753623    0.000000000000      12
    0.420289855072    0.014492753623    0.000000000000      12
    0.434782608696    0.014492753623    0.000000000000      12
    0.449275362319    0.014492753623    0.000000000000      12
    0.463768115942    0.014492753623    0.000000000000      12
    0.478260869565    0.014492753623    0.000000000000      12
    0.492753623188    0.014492753623    0.000000000000       6
    0.028985507246    0.028985507246    0.000000000000       6
    0.043478260870    0.028985507246    0.000000000000      12
    0.057971014493    0.028985507246    0.000000000000      12
    0.072463768116    0.028985507246    0.000000000000      12
    0.086956521739    0.028985507246    0.000000000000      12
    0.101449275362    0.028985507246    0.000000000000      12
    0.115942028986    0.028985507246    0.000000000000      12
    0.130434782609    0.028985507246    0.000000000000      12
    0.144927536232    0.028985507246    0.000000000000      12
    0.159420289855    0.028985507246    0.000000000000      12
    0.173913043478    0.028985507246    0.000000000000      12
    0.188405797101    0.028985507246    0.000000000000      12
    0.202898550725    0.028985507246    0.000000000000      12
    0.217391304348    0.028985507246    0.000000000000      12
    0.231884057971    0.028985507246    0.000000000000      12
    0.246376811594    0.028985507246    0.000000000000      12
    0.260869565217    0.028985507246    0.000000000000      12
    0.275362318841    0.028985507246    0.000000000000      12
    0.289855072464    0.028985507246    0.000000000000      12
    0.304347826087    0.028985507246    0.000000000000      12
    0.318840579710    0.028985507246    0.000000000000      12
    0.333333333333    0.028985507246    0.000000000000      12
    0.347826086957    0.028985507246    0.000000000000      12
    0.362318840580    0.028985507246    0.000000000000      12
    0.376811594203    0.028985507246    0.000000000000      12
    0.391304347826    0.028985507246    0.000000000000      12
    0.405797101449    0.028985507246    0.000000000000      12
    0.420289855072    0.028985507246    0.000000000000      12
    0.434782608696    0.028985507246    0.000000000000      12
    0.449275362319    0.028985507246    0.000000000000      12
    0.463768115942    0.028985507246    0.000000000000      12
    0.478260869565    0.028985507246    0.000000000000      12
    0.043478260870    0.043478260870    0.000000000000       6
    0.057971014493    0.043478260870    0.000000000000      12
    0.072463768116    0.043478260870    0.000000000000      12
    0.086956521739    0.043478260870    0.000000000000      12
    0.101449275362    0.043478260870    0.000000000000      12
    0.115942028986    0.043478260870    0.000000000000      12
    0.130434782609    0.043478260870    0.000000000000      12
    0.144927536232    0.043478260870    0.000000000000      12
    0.159420289855    0.043478260870    0.000000000000      12
    0.173913043478    0.043478260870    0.000000000000      12
    0.188405797101    0.043478260870    0.000000000000      12
    0.202898550725    0.043478260870    0.000000000000      12
    0.217391304348    0.043478260870    0.000000000000      12
    0.231884057971    0.043478260870    0.000000000000      12
    0.246376811594    0.043478260870    0.000000000000      12
    0.260869565217    0.043478260870    0.000000000000      12
    0.275362318841    0.043478260870    0.000000000000      12
    0.289855072464    0.043478260870    0.000000000000      12
    0.304347826087    0.043478260870    0.000000000000      12
    0.318840579710    0.043478260870    0.000000000000      12
    0.333333333333    0.043478260870    0.000000000000      12
    0.347826086957    0.043478260870    0.000000000000      12
    0.362318840580    0.043478260870    0.000000000000      12
    0.376811594203    0.043478260870    0.000000000000      12
    0.391304347826    0.043478260870    0.000000000000      12
    0.405797101449    0.043478260870    0.000000000000      12
    0.420289855072    0.043478260870    0.000000000000      12
    0.434782608696    0.043478260870    0.000000000000      12
    0.449275362319    0.043478260870    0.000000000000      12
    0.463768115942    0.043478260870    0.000000000000      12
    0.478260869565    0.043478260870    0.000000000000       6
    0.057971014493    0.057971014493    0.000000000000       6
    0.072463768116    0.057971014493    0.000000000000      12
    0.086956521739    0.057971014493    0.000000000000      12
    0.101449275362    0.057971014493    0.000000000000      12
    0.115942028986    0.057971014493    0.000000000000      12
    0.130434782609    0.057971014493    0.000000000000      12
    0.144927536232    0.057971014493    0.000000000000      12
    0.159420289855    0.057971014493    0.000000000000      12
    0.173913043478    0.057971014493    0.000000000000      12
    0.188405797101    0.057971014493    0.000000000000      12
    0.202898550725    0.057971014493    0.000000000000      12
    0.217391304348    0.057971014493    0.000000000000      12
    0.231884057971    0.057971014493    0.000000000000      12
    0.246376811594    0.057971014493    0.000000000000      12
    0.260869565217    0.057971014493    0.000000000000      12
    0.275362318841    0.057971014493    0.000000000000      12
    0.289855072464    0.057971014493    0.000000000000      12
    0.304347826087    0.057971014493    0.000000000000      12
    0.318840579710    0.057971014493    0.000000000000      12
    0.333333333333    0.057971014493    0.000000000000      12
    0.347826086957    0.057971014493    0.000000000000      12
    0.362318840580    0.057971014493    0.000000000000      12
    0.376811594203    0.057971014493    0.000000000000      12
    0.391304347826    0.057971014493    0.000000000000      12
    0.405797101449    0.057971014493    0.000000000000      12
    0.420289855072    0.057971014493    0.000000000000      12
    0.434782608696    0.057971014493    0.000000000000      12
    0.449275362319    0.057971014493    0.000000000000      12
    0.463768115942    0.057971014493    0.000000000000      12
    0.072463768116    0.072463768116    0.000000000000       6
    0.086956521739    0.072463768116    0.000000000000      12
    0.101449275362    0.072463768116    0.000000000000      12
    0.115942028986    0.072463768116    0.000000000000      12
    0.130434782609    0.072463768116    0.000000000000      12
    0.144927536232    0.072463768116    0.000000000000      12
    0.159420289855    0.072463768116    0.000000000000      12
    0.173913043478    0.072463768116    0.000000000000      12
    0.188405797101    0.072463768116    0.000000000000      12
    0.202898550725    0.072463768116    0.000000000000      12
    0.217391304348    0.072463768116    0.000000000000      12
    0.231884057971    0.072463768116    0.000000000000      12
    0.246376811594    0.072463768116    0.000000000000      12
    0.260869565217    0.072463768116    0.000000000000      12
    0.275362318841    0.072463768116    0.000000000000      12
    0.289855072464    0.072463768116    0.000000000000      12
    0.304347826087    0.072463768116    0.000000000000      12
    0.318840579710    0.072463768116    0.000000000000      12
    0.333333333333    0.072463768116    0.000000000000      12
    0.347826086957    0.072463768116    0.000000000000      12
    0.362318840580    0.072463768116    0.000000000000      12
    0.376811594203    0.072463768116    0.000000000000      12
    0.391304347826    0.072463768116    0.000000000000      12
    0.405797101449    0.072463768116    0.000000000000      12
    0.420289855072    0.072463768116    0.000000000000      12
    0.434782608696    0.072463768116    0.000000000000      12
    0.449275362319    0.072463768116    0.000000000000      12
    0.463768115942    0.072463768116    0.000000000000       6
    0.086956521739    0.086956521739    0.000000000000       6
    0.101449275362    0.086956521739    0.000000000000      12
    0.115942028986    0.086956521739    0.000000000000      12
    0.130434782609    0.086956521739    0.000000000000      12
    0.144927536232    0.086956521739    0.000000000000      12
    0.159420289855    0.086956521739    0.000000000000      12
    0.173913043478    0.086956521739    0.000000000000      12
    0.188405797101    0.086956521739    0.000000000000      12
    0.202898550725    0.086956521739    0.000000000000      12
    0.217391304348    0.086956521739    0.000000000000      12
    0.231884057971    0.086956521739    0.000000000000      12
    0.246376811594    0.086956521739    0.000000000000      12
    0.260869565217    0.086956521739    0.000000000000      12
    0.275362318841    0.086956521739    0.000000000000      12
    0.289855072464    0.086956521739    0.000000000000      12
    0.304347826087    0.086956521739    0.000000000000      12
    0.318840579710    0.086956521739    0.000000000000      12
    0.333333333333    0.086956521739    0.000000000000      12
    0.347826086957    0.086956521739    0.000000000000      12
    0.362318840580    0.086956521739    0.000000000000      12
    0.376811594203    0.086956521739    0.000000000000      12
    0.391304347826    0.086956521739    0.000000000000      12
    0.405797101449    0.086956521739    0.000000000000      12
    0.420289855072    0.086956521739    0.000000000000      12
    0.434782608696    0.086956521739    0.000000000000      12
    0.449275362319    0.086956521739    0.000000000000      12
    0.101449275362    0.101449275362    0.000000000000       6
    0.115942028986    0.101449275362    0.000000000000      12
    0.130434782609    0.101449275362    0.000000000000      12
    0.144927536232    0.101449275362    0.000000000000      12
    0.159420289855    0.101449275362    0.000000000000      12
    0.173913043478    0.101449275362    0.000000000000      12
    0.188405797101    0.101449275362    0.000000000000      12
    0.202898550725    0.101449275362    0.000000000000      12
    0.217391304348    0.101449275362    0.000000000000      12
    0.231884057971    0.101449275362    0.000000000000      12
    0.246376811594    0.101449275362    0.000000000000      12
    0.260869565217    0.101449275362    0.000000000000      12
    0.275362318841    0.101449275362    0.000000000000      12
    0.289855072464    0.101449275362    0.000000000000      12
    0.304347826087    0.101449275362    0.000000000000      12
    0.318840579710    0.101449275362    0.000000000000      12
    0.333333333333    0.101449275362    0.000000000000      12
    0.347826086957    0.101449275362    0.000000000000      12
    0.362318840580    0.101449275362    0.000000000000      12
    0.376811594203    0.101449275362    0.000000000000      12
    0.391304347826    0.101449275362    0.000000000000      12
    0.405797101449    0.101449275362    0.000000000000      12
    0.420289855072    0.101449275362    0.000000000000      12
    0.434782608696    0.101449275362    0.000000000000      12
    0.449275362319    0.101449275362    0.000000000000       6
    0.115942028986    0.115942028986    0.000000000000       6
    0.130434782609    0.115942028986    0.000000000000      12
    0.144927536232    0.115942028986    0.000000000000      12
    0.159420289855    0.115942028986    0.000000000000      12
    0.173913043478    0.115942028986    0.000000000000      12
    0.188405797101    0.115942028986    0.000000000000      12
    0.202898550725    0.115942028986    0.000000000000      12
    0.217391304348    0.115942028986    0.000000000000      12
    0.231884057971    0.115942028986    0.000000000000      12
    0.246376811594    0.115942028986    0.000000000000      12
    0.260869565217    0.115942028986    0.000000000000      12
    0.275362318841    0.115942028986    0.000000000000      12
    0.289855072464    0.115942028986    0.000000000000      12
    0.304347826087    0.115942028986    0.000000000000      12
    0.318840579710    0.115942028986    0.000000000000      12
    0.333333333333    0.115942028986    0.000000000000      12
    0.347826086957    0.115942028986    0.000000000000      12
    0.362318840580    0.115942028986    0.000000000000      12
    0.376811594203    0.115942028986    0.000000000000      12
    0.391304347826    0.115942028986    0.000000000000      12
    0.405797101449    0.115942028986    0.000000000000      12
    0.420289855072    0.115942028986    0.000000000000      12
    0.434782608696    0.115942028986    0.000000000000      12
    0.130434782609    0.130434782609    0.000000000000       6
    0.144927536232    0.130434782609    0.000000000000      12
    0.159420289855    0.130434782609    0.000000000000      12
    0.173913043478    0.130434782609    0.000000000000      12
    0.188405797101    0.130434782609    0.000000000000      12
    0.202898550725    0.130434782609    0.000000000000      12
    0.217391304348    0.130434782609    0.000000000000      12
    0.231884057971    0.130434782609    0.000000000000      12
    0.246376811594    0.130434782609    0.000000000000      12
    0.260869565217    0.130434782609    0.000000000000      12
    0.275362318841    0.130434782609    0.000000000000      12
    0.289855072464    0.130434782609    0.000000000000      12
    0.304347826087    0.130434782609    0.000000000000      12
    0.318840579710    0.130434782609    0.000000000000      12
    0.333333333333    0.130434782609    0.000000000000      12
    0.347826086957    0.130434782609    0.000000000000      12
    0.362318840580    0.130434782609    0.000000000000      12
    0.376811594203    0.130434782609    0.000000000000      12
    0.391304347826    0.130434782609    0.000000000000      12
    0.405797101449    0.130434782609    0.000000000000      12
    0.420289855072    0.130434782609    0.000000000000      12
    0.434782608696    0.130434782609    0.000000000000       6
    0.144927536232    0.144927536232    0.000000000000       6
    0.159420289855    0.144927536232    0.000000000000      12
    0.173913043478    0.144927536232    0.000000000000      12
    0.188405797101    0.144927536232    0.000000000000      12
    0.202898550725    0.144927536232    0.000000000000      12
    0.217391304348    0.144927536232    0.000000000000      12
    0.231884057971    0.144927536232    0.000000000000      12
    0.246376811594    0.144927536232    0.000000000000      12
    0.260869565217    0.144927536232    0.000000000000      12
    0.275362318841    0.144927536232    0.000000000000      12
    0.289855072464    0.144927536232    0.000000000000      12
    0.304347826087    0.144927536232    0.000000000000      12
    0.318840579710    0.144927536232    0.000000000000      12
    0.333333333333    0.144927536232    0.000000000000      12
    0.347826086957    0.144927536232    0.000000000000      12
    0.362318840580    0.144927536232    0.000000000000      12
    0.376811594203    0.144927536232    0.000000000000      12
    0.391304347826    0.144927536232    0.000000000000      12
    0.405797101449    0.144927536232    0.000000000000      12
    0.420289855072    0.144927536232    0.000000000000      12
    0.159420289855    0.159420289855    0.000000000000       6
    0.173913043478    0.159420289855    0.000000000000      12
    0.188405797101    0.159420289855    0.000000000000      12
    0.202898550725    0.159420289855    0.000000000000      12
    0.217391304348    0.159420289855    0.000000000000      12
    0.231884057971    0.159420289855    0.000000000000      12
    0.246376811594    0.159420289855    0.000000000000      12
    0.260869565217    0.159420289855    0.000000000000      12
    0.275362318841    0.159420289855    0.000000000000      12
    0.289855072464    0.159420289855    0.000000000000      12
    0.304347826087    0.159420289855    0.000000000000      12
    0.318840579710    0.159420289855    0.000000000000      12
    0.333333333333    0.159420289855    0.000000000000      12
    0.347826086957    0.159420289855    0.000000000000      12
    0.362318840580    0.159420289855    0.000000000000      12
    0.376811594203    0.159420289855    0.000000000000      12
    0.391304347826    0.159420289855    0.000000000000      12
    0.405797101449    0.159420289855    0.000000000000      12
    0.420289855072    0.159420289855    0.000000000000       6
    0.173913043478    0.173913043478    0.000000000000       6
    0.188405797101    0.173913043478    0.000000000000      12
    0.202898550725    0.173913043478    0.000000000000      12
    0.217391304348    0.173913043478    0.000000000000      12
    0.231884057971    0.173913043478    0.000000000000      12
    0.246376811594    0.173913043478    0.000000000000      12
    0.260869565217    0.173913043478    0.000000000000      12
    0.275362318841    0.173913043478    0.000000000000      12
    0.289855072464    0.173913043478    0.000000000000      12
    0.304347826087    0.173913043478    0.000000000000      12
    0.318840579710    0.173913043478    0.000000000000      12
    0.333333333333    0.173913043478    0.000000000000      12
    0.347826086957    0.173913043478    0.000000000000      12
    0.362318840580    0.173913043478    0.000000000000      12
    0.376811594203    0.173913043478    0.000000000000      12
    0.391304347826    0.173913043478    0.000000000000      12
    0.405797101449    0.173913043478    0.000000000000      12
    0.188405797101    0.188405797101    0.000000000000       6
    0.202898550725    0.188405797101    0.000000000000      12
    0.217391304348    0.188405797101    0.000000000000      12
    0.231884057971    0.188405797101    0.000000000000      12
    0.246376811594    0.188405797101    0.000000000000      12
    0.260869565217    0.188405797101    0.000000000000      12
    0.275362318841    0.188405797101    0.000000000000      12
    0.289855072464    0.188405797101    0.000000000000      12
    0.304347826087    0.188405797101    0.000000000000      12
    0.318840579710    0.188405797101    0.000000000000      12
    0.333333333333    0.188405797101    0.000000000000      12
    0.347826086957    0.188405797101    0.000000000000      12
    0.362318840580    0.188405797101    0.000000000000      12
    0.376811594203    0.188405797101    0.000000000000      12
    0.391304347826    0.188405797101    0.000000000000      12
    0.405797101449    0.188405797101    0.000000000000       6
    0.202898550725    0.202898550725    0.000000000000       6
    0.217391304348    0.202898550725    0.000000000000      12
    0.231884057971    0.202898550725    0.000000000000      12
    0.246376811594    0.202898550725    0.000000000000      12
    0.260869565217    0.202898550725    0.000000000000      12
    0.275362318841    0.202898550725    0.000000000000      12
    0.289855072464    0.202898550725    0.000000000000      12
    0.304347826087    0.202898550725    0.000000000000      12
    0.318840579710    0.202898550725    0.000000000000      12
    0.333333333333    0.202898550725    0.000000000000      12
    0.347826086957    0.202898550725    0.000000000000      12
    0.362318840580    0.202898550725    0.000000000000      12
    0.376811594203    0.202898550725    0.000000000000      12
    0.391304347826    0.202898550725    0.000000000000      12
    0.217391304348    0.217391304348    0.000000000000       6
    0.231884057971    0.217391304348    0.000000000000      12
    0.246376811594    0.217391304348    0.000000000000      12
    0.260869565217    0.217391304348    0.000000000000      12
    0.275362318841    0.217391304348    0.000000000000      12
    0.289855072464    0.217391304348    0.000000000000      12
    0.304347826087    0.217391304348    0.000000000000      12
    0.318840579710    0.217391304348    0.000000000000      12
    0.333333333333    0.217391304348    0.000000000000      12
    0.347826086957    0.217391304348    0.000000000000      12
    0.362318840580    0.217391304348    0.000000000000      12
    0.376811594203    0.217391304348    0.000000000000      12
    0.391304347826    0.217391304348    0.000000000000       6
    0.231884057971    0.231884057971    0.000000000000       6
    0.246376811594    0.231884057971    0.000000000000      12
    0.260869565217    0.231884057971    0.000000000000      12
    0.275362318841    0.231884057971    0.000000000000      12
    0.289855072464    0.231884057971    0.000000000000      12
    0.304347826087    0.231884057971    0.000000000000      12
    0.318840579710    0.231884057971    0.000000000000      12
    0.333333333333    0.231884057971    0.000000000000      12
    0.347826086957    0.231884057971    0.000000000000      12
    0.362318840580    0.231884057971    0.000000000000      12
    0.376811594203    0.231884057971    0.000000000000      12
    0.246376811594    0.246376811594    0.000000000000       6
    0.260869565217    0.246376811594    0.000000000000      12
    0.275362318841    0.246376811594    0.000000000000      12
    0.289855072464    0.246376811594    0.000000000000      12
    0.304347826087    0.246376811594    0.000000000000      12
    0.318840579710    0.246376811594    0.000000000000      12
    0.333333333333    0.246376811594    0.000000000000      12
    0.347826086957    0.246376811594    0.000000000000      12
    0.362318840580    0.246376811594    0.000000000000      12
    0.376811594203    0.246376811594    0.000000000000       6
    0.260869565217    0.260869565217    0.000000000000       6
    0.275362318841    0.260869565217    0.000000000000      12
    0.289855072464    0.260869565217    0.000000000000      12
    0.304347826087    0.260869565217    0.000000000000      12
    0.318840579710    0.260869565217    0.000000000000      12
    0.333333333333    0.260869565217    0.000000000000      12
    0.347826086957    0.260869565217    0.000000000000      12
    0.362318840580    0.260869565217    0.000000000000      12
    0.275362318841    0.275362318841    0.000000000000       6
    0.289855072464    0.275362318841    0.000000000000      12
    0.304347826087    0.275362318841    0.000000000000      12
    0.318840579710    0.275362318841    0.000000000000      12
    0.333333333333    0.275362318841    0.000000000000      12
    0.347826086957    0.275362318841    0.000000000000      12
    0.362318840580    0.275362318841    0.000000000000       6
    0.289855072464    0.289855072464    0.000000000000       6
    0.304347826087    0.289855072464    0.000000000000      12
    0.318840579710    0.289855072464    0.000000000000      12
    0.333333333333    0.289855072464    0.000000000000      12
    0.347826086957    0.289855072464    0.000000000000      12
    0.304347826087    0.304347826087    0.000000000000       6
    0.318840579710    0.304347826087    0.000000000000      12
    0.333333333333    0.304347826087    0.000000000000      12
    0.347826086957    0.304347826087    0.000000000000       6
    0.318840579710    0.318840579710    0.000000000000       6
    0.333333333333    0.318840579710    0.000000000000      12
    0.333333333333    0.333333333333    0.000000000000       2
