 Nb2 Se4
   1.000
    3.4834893546697967    0.0000000000000000    0.0000000000000000
   -1.7417446773348984    3.0167898041332477    0.0000000000000000
    0.0000000000000000    0.0000000000000000   13.8037547377976022
   Nb   Se
    1    2
Direct
    0.0000000000000000    0.0000000000000000    0.5000000000000000    Nb1
    0.6666669999999968    0.3333330000000032    0.3787634835477099    Se1
    0.6666669999999968    0.3333330000000032    0.6212365164522901    Se2
