ATOMIC_SPECIES
C 12.011 ../../C_ONCV_PBE-1.0.upf upf201

NUMERICAL_ORBITAL
../../C_gga_7au_100Ry_2s2p1d.orb

LATTICE_CONSTANT
1.889726

LATTICE_VECTORS
3.56251545 0.00890629 0.00890629 #latvec1
0.00890629 3.56251545 0.00890629 #latvec2
0.00890629 0.00890629 3.56251545 #latvec3

ATOMIC_POSITIONS
Direct

C #label
0 #magnetism
8 #number of atoms
0.249960453674  0.249960453674  0.249960509342  m  1  1  1
0.999971162339  0.999971162339  0.000217579763709  m  1  1  1
0.250038082621  0.750036217107  0.749785785042  m  1  1  1
0.99997169979  0.499961856281  0.500212072743  m  1  1  1
0.750036217107  0.250038082621  0.749785785042  m  1  1  1
0.499961856281  0.99997169979  0.500212072743  m  1  1  1
0.750028837661  0.750028837661  0.249782420236  m  1  1  1
0.499941278555  0.499941278555  0.000244597267635  m  1  1  1
