0.030  10  10  10   56  0.030  379   10   59   29   21   63   51   36   21   42   36   21           # Parameters to Generate KPOINTS (Don't Edit This Line)
   435
Reciprocal lattice
    0.00000000000000    0.00000000000000    0.00000000000000     1
    0.10000000000000    0.00000000000000    0.00000000000000     6
    0.20000000000000    0.00000000000000    0.00000000000000     6
    0.30000000000000    0.00000000000000    0.00000000000000     6
    0.40000000000000    0.00000000000000    0.00000000000000     6
    0.50000000000000    0.00000000000000    0.00000000000000     3
    0.10000000000000    0.10000000000000    0.00000000000000    12
    0.20000000000000    0.10000000000000    0.00000000000000    24
    0.30000000000000    0.10000000000000    0.00000000000000    24
    0.40000000000000    0.10000000000000    0.00000000000000    24
    0.50000000000000    0.10000000000000    0.00000000000000    12
    0.20000000000000    0.20000000000000    0.00000000000000    12
    0.30000000000000    0.20000000000000    0.00000000000000    24
    0.40000000000000    0.20000000000000    0.00000000000000    24
    0.50000000000000    0.20000000000000    0.00000000000000    12
    0.30000000000000    0.30000000000000    0.00000000000000    12
    0.40000000000000    0.30000000000000    0.00000000000000    24
    0.50000000000000    0.30000000000000    0.00000000000000    12
    0.40000000000000    0.40000000000000    0.00000000000000    12
    0.50000000000000    0.40000000000000    0.00000000000000    12
    0.50000000000000    0.50000000000000    0.00000000000000     3
    0.10000000000000    0.10000000000000    0.10000000000000     8
    0.20000000000000    0.10000000000000    0.10000000000000    24
    0.30000000000000    0.10000000000000    0.10000000000000    24
    0.40000000000000    0.10000000000000    0.10000000000000    24
    0.50000000000000    0.10000000000000    0.10000000000000    12
    0.20000000000000    0.20000000000000    0.10000000000000    24
    0.30000000000000    0.20000000000000    0.10000000000000    48
    0.40000000000000    0.20000000000000    0.10000000000000    48
    0.50000000000000    0.20000000000000    0.10000000000000    24
    0.30000000000000    0.30000000000000    0.10000000000000    24
    0.40000000000000    0.30000000000000    0.10000000000000    48
    0.50000000000000    0.30000000000000    0.10000000000000    24
    0.40000000000000    0.40000000000000    0.10000000000000    24
    0.50000000000000    0.40000000000000    0.10000000000000    24
    0.50000000000000    0.50000000000000    0.10000000000000     6
    0.20000000000000    0.20000000000000    0.20000000000000     8
    0.30000000000000    0.20000000000000    0.20000000000000    24
    0.40000000000000    0.20000000000000    0.20000000000000    24
    0.50000000000000    0.20000000000000    0.20000000000000    12
    0.30000000000000    0.30000000000000    0.20000000000000    24
    0.40000000000000    0.30000000000000    0.20000000000000    48
    0.50000000000000    0.30000000000000    0.20000000000000    24
    0.40000000000000    0.40000000000000    0.20000000000000    24
    0.50000000000000    0.40000000000000    0.20000000000000    24
    0.50000000000000    0.50000000000000    0.20000000000000     6
    0.30000000000000    0.30000000000000    0.30000000000000     8
    0.40000000000000    0.30000000000000    0.30000000000000    24
    0.50000000000000    0.30000000000000    0.30000000000000    12
    0.40000000000000    0.40000000000000    0.30000000000000    24
    0.50000000000000    0.40000000000000    0.30000000000000    24
    0.50000000000000    0.50000000000000    0.30000000000000     6
    0.40000000000000    0.40000000000000    0.40000000000000     8
    0.50000000000000    0.40000000000000    0.40000000000000    12
    0.50000000000000    0.50000000000000    0.40000000000000     6
    0.50000000000000    0.50000000000000    0.50000000000000     1
    0.00000000000000    0.00000000000000    0.00000000000000     0
    0.00000000000000    0.01724137931034    0.00000000000000     0
    0.00000000000000    0.03448275862069    0.00000000000000     0
    0.00000000000000    0.05172413793103    0.00000000000000     0
    0.00000000000000    0.06896551724138    0.00000000000000     0
    0.00000000000000    0.08620689655172    0.00000000000000     0
    0.00000000000000    0.10344827586207    0.00000000000000     0
    0.00000000000000    0.12068965517241    0.00000000000000     0
    0.00000000000000    0.13793103448276    0.00000000000000     0
    0.00000000000000    0.15517241379310    0.00000000000000     0
    0.00000000000000    0.17241379310345    0.00000000000000     0
    0.00000000000000    0.18965517241379    0.00000000000000     0
    0.00000000000000    0.20689655172414    0.00000000000000     0
    0.00000000000000    0.22413793103448    0.00000000000000     0
    0.00000000000000    0.24137931034483    0.00000000000000     0
    0.00000000000000    0.25862068965517    0.00000000000000     0
    0.00000000000000    0.27586206896552    0.00000000000000     0
    0.00000000000000    0.29310344827586    0.00000000000000     0
    0.00000000000000    0.31034482758621    0.00000000000000     0
    0.00000000000000    0.32758620689655    0.00000000000000     0
    0.00000000000000    0.34482758620690    0.00000000000000     0
    0.00000000000000    0.36206896551724    0.00000000000000     0
    0.00000000000000    0.37931034482759    0.00000000000000     0
    0.00000000000000    0.39655172413793    0.00000000000000     0
    0.00000000000000    0.41379310344828    0.00000000000000     0
    0.00000000000000    0.43103448275862    0.00000000000000     0
    0.00000000000000    0.44827586206897    0.00000000000000     0
    0.00000000000000    0.46551724137931    0.00000000000000     0
    0.00000000000000    0.48275862068966    0.00000000000000     0
    0.00000000000000   -0.50000000000000    0.00000000000000     0
    0.00000000000000   -0.48275862068966    0.00000000000000     0
    0.00000000000000   -0.46551724137931    0.00000000000000     0
    0.00000000000000   -0.44827586206897    0.00000000000000     0
    0.00000000000000   -0.43103448275862    0.00000000000000     0
    0.00000000000000   -0.41379310344828    0.00000000000000     0
    0.00000000000000   -0.39655172413793    0.00000000000000     0
    0.00000000000000   -0.37931034482759    0.00000000000000     0
    0.00000000000000   -0.36206896551724    0.00000000000000     0
    0.00000000000000   -0.34482758620690    0.00000000000000     0
    0.00000000000000   -0.32758620689655    0.00000000000000     0
    0.00000000000000   -0.31034482758621    0.00000000000000     0
    0.00000000000000   -0.29310344827586    0.00000000000000     0
    0.00000000000000   -0.27586206896552    0.00000000000000     0
    0.00000000000000   -0.25862068965517    0.00000000000000     0
    0.00000000000000   -0.24137931034483    0.00000000000000     0
    0.00000000000000   -0.22413793103448    0.00000000000000     0
    0.00000000000000   -0.20689655172414    0.00000000000000     0
    0.00000000000000   -0.18965517241379    0.00000000000000     0
    0.00000000000000   -0.17241379310345    0.00000000000000     0
    0.00000000000000   -0.15517241379310    0.00000000000000     0
    0.00000000000000   -0.13793103448276    0.00000000000000     0
    0.00000000000000   -0.12068965517241    0.00000000000000     0
    0.00000000000000   -0.10344827586207    0.00000000000000     0
    0.00000000000000   -0.08620689655172    0.00000000000000     0
    0.00000000000000   -0.06896551724138    0.00000000000000     0
    0.00000000000000   -0.05172413793103    0.00000000000000     0
    0.00000000000000   -0.03448275862069    0.00000000000000     0
    0.00000000000000   -0.01724137931034    0.00000000000000     0
    0.00000000000000    0.00000000000000    0.00000000000000     0
    0.00000000000000    0.00000000000000    0.00000000000000     0
    0.01785714285714    0.00000000000000    0.00000000000000     0
    0.03571428571429    0.00000000000000    0.00000000000000     0
    0.05357142857143    0.00000000000000    0.00000000000000     0
    0.07142857142857    0.00000000000000    0.00000000000000     0
    0.08928571428571    0.00000000000000    0.00000000000000     0
    0.10714285714286    0.00000000000000    0.00000000000000     0
    0.12500000000000    0.00000000000000    0.00000000000000     0
    0.14285714285714    0.00000000000000    0.00000000000000     0
    0.16071428571429    0.00000000000000    0.00000000000000     0
    0.17857142857143    0.00000000000000    0.00000000000000     0
    0.19642857142857    0.00000000000000    0.00000000000000     0
    0.21428571428571    0.00000000000000    0.00000000000000     0
    0.23214285714286    0.00000000000000    0.00000000000000     0
    0.25000000000000    0.00000000000000    0.00000000000000     0
    0.26785714285714    0.00000000000000    0.00000000000000     0
    0.28571428571429    0.00000000000000    0.00000000000000     0
    0.30357142857143    0.00000000000000    0.00000000000000     0
    0.32142857142857    0.00000000000000    0.00000000000000     0
    0.33928571428571    0.00000000000000    0.00000000000000     0
    0.35714285714286    0.00000000000000    0.00000000000000     0
    0.37500000000000    0.00000000000000    0.00000000000000     0
    0.39285714285714    0.00000000000000    0.00000000000000     0
    0.41071428571429    0.00000000000000    0.00000000000000     0
    0.42857142857143    0.00000000000000    0.00000000000000     0
    0.44642857142857    0.00000000000000    0.00000000000000     0
    0.46428571428571    0.00000000000000    0.00000000000000     0
    0.48214285714286    0.00000000000000    0.00000000000000     0
   -0.50000000000000    0.00000000000000    0.00000000000000     0
   -0.50000000000000    0.00000000000000    0.00000000000000     0
   -0.48750000000000   -0.01250000000000    0.00000000000000     0
   -0.47500000000000   -0.02500000000000    0.00000000000000     0
   -0.46250000000000   -0.03750000000000    0.00000000000000     0
   -0.45000000000000   -0.05000000000000    0.00000000000000     0
   -0.43750000000000   -0.06250000000000    0.00000000000000     0
   -0.42500000000000   -0.07500000000000    0.00000000000000     0
   -0.41250000000000   -0.08750000000000    0.00000000000000     0
   -0.40000000000000   -0.10000000000000    0.00000000000000     0
   -0.38750000000000   -0.11250000000000    0.00000000000000     0
   -0.37500000000000   -0.12500000000000    0.00000000000000     0
   -0.36250000000000   -0.13750000000000    0.00000000000000     0
   -0.35000000000000   -0.15000000000000    0.00000000000000     0
   -0.33750000000000   -0.16250000000000    0.00000000000000     0
   -0.32500000000000   -0.17500000000000    0.00000000000000     0
   -0.31250000000000   -0.18750000000000    0.00000000000000     0
   -0.30000000000000   -0.20000000000000    0.00000000000000     0
   -0.28750000000000   -0.21250000000000    0.00000000000000     0
   -0.27500000000000   -0.22500000000000    0.00000000000000     0
   -0.26250000000000   -0.23750000000000    0.00000000000000     0
   -0.25000000000000   -0.25000000000000    0.00000000000000     0
   -0.25000000000000   -0.25000000000000    0.00000000000000     0
   -0.26209677419355   -0.26209677419355    0.00000000000000     0
   -0.27419354838710   -0.27419354838710    0.00000000000000     0
   -0.28629032258065   -0.28629032258065    0.00000000000000     0
   -0.29838709677419   -0.29838709677419    0.00000000000000     0
   -0.31048387096774   -0.31048387096774    0.00000000000000     0
   -0.32258064516129   -0.32258064516129    0.00000000000000     0
   -0.33467741935484   -0.33467741935484    0.00000000000000     0
   -0.34677419354839   -0.34677419354839    0.00000000000000     0
   -0.35887096774194   -0.35887096774194    0.00000000000000     0
   -0.37096774193548   -0.37096774193548    0.00000000000000     0
   -0.38306451612903   -0.38306451612903    0.00000000000000     0
   -0.39516129032258   -0.39516129032258    0.00000000000000     0
   -0.40725806451613   -0.40725806451613    0.00000000000000     0
   -0.41935483870968   -0.41935483870968    0.00000000000000     0
   -0.43145161290323   -0.43145161290323    0.00000000000000     0
   -0.44354838709677   -0.44354838709677    0.00000000000000     0
   -0.45564516129032   -0.45564516129032    0.00000000000000     0
   -0.46774193548387   -0.46774193548387    0.00000000000000     0
   -0.47983870967742   -0.47983870967742    0.00000000000000     0
   -0.49193548387097   -0.49193548387097    0.00000000000000     0
    0.49596774193548    0.49596774193548    0.00000000000000     0
    0.48387096774194    0.48387096774194    0.00000000000000     0
    0.47177419354839    0.47177419354839    0.00000000000000     0
    0.45967741935484    0.45967741935484    0.00000000000000     0
    0.44758064516129    0.44758064516129    0.00000000000000     0
    0.43548387096774    0.43548387096774    0.00000000000000     0
    0.42338709677419    0.42338709677419    0.00000000000000     0
    0.41129032258065    0.41129032258065    0.00000000000000     0
    0.39919354838710    0.39919354838710    0.00000000000000     0
    0.38709677419355    0.38709677419355    0.00000000000000     0
    0.37500000000000    0.37500000000000    0.00000000000000     0
    0.36290322580645    0.36290322580645    0.00000000000000     0
    0.35080645161290    0.35080645161290    0.00000000000000     0
    0.33870967741935    0.33870967741935    0.00000000000000     0
    0.32661290322581    0.32661290322581    0.00000000000000     0
    0.31451612903226    0.31451612903226    0.00000000000000     0
    0.30241935483871    0.30241935483871    0.00000000000000     0
    0.29032258064516    0.29032258064516    0.00000000000000     0
    0.27822580645161    0.27822580645161    0.00000000000000     0
    0.26612903225806    0.26612903225806    0.00000000000000     0
    0.25403225806452    0.25403225806452    0.00000000000000     0
    0.24193548387097    0.24193548387097    0.00000000000000     0
    0.22983870967742    0.22983870967742    0.00000000000000     0
    0.21774193548387    0.21774193548387    0.00000000000000     0
    0.20564516129032    0.20564516129032    0.00000000000000     0
    0.19354838709677    0.19354838709677    0.00000000000000     0
    0.18145161290323    0.18145161290323    0.00000000000000     0
    0.16935483870968    0.16935483870968    0.00000000000000     0
    0.15725806451613    0.15725806451613    0.00000000000000     0
    0.14516129032258    0.14516129032258    0.00000000000000     0
    0.13306451612903    0.13306451612903    0.00000000000000     0
    0.12096774193548    0.12096774193548    0.00000000000000     0
    0.10887096774194    0.10887096774194    0.00000000000000     0
    0.09677419354839    0.09677419354839    0.00000000000000     0
    0.08467741935484    0.08467741935484    0.00000000000000     0
    0.07258064516129    0.07258064516129    0.00000000000000     0
    0.06048387096774    0.06048387096774    0.00000000000000     0
    0.04838709677419    0.04838709677419    0.00000000000000     0
    0.03629032258065    0.03629032258065    0.00000000000000     0
    0.02419354838710    0.02419354838710    0.00000000000000     0
    0.01209677419355    0.01209677419355    0.00000000000000     0
    0.00000000000000    0.00000000000000    0.00000000000000     0
    0.00000000000000    0.00000000000000    0.00000000000000     0
    0.01000000000000    0.01000000000000    0.01000000000000     0
    0.02000000000000    0.02000000000000    0.02000000000000     0
    0.03000000000000    0.03000000000000    0.03000000000000     0
    0.04000000000000    0.04000000000000    0.04000000000000     0
    0.05000000000000    0.05000000000000    0.05000000000000     0
    0.06000000000000    0.06000000000000    0.06000000000000     0
    0.07000000000000    0.07000000000000    0.07000000000000     0
    0.08000000000000    0.08000000000000    0.08000000000000     0
    0.09000000000000    0.09000000000000    0.09000000000000     0
    0.10000000000000    0.10000000000000    0.10000000000000     0
    0.11000000000000    0.11000000000000    0.11000000000000     0
    0.12000000000000    0.12000000000000    0.12000000000000     0
    0.13000000000000    0.13000000000000    0.13000000000000     0
    0.14000000000000    0.14000000000000    0.14000000000000     0
    0.15000000000000    0.15000000000000    0.15000000000000     0
    0.16000000000000    0.16000000000000    0.16000000000000     0
    0.17000000000000    0.17000000000000    0.17000000000000     0
    0.18000000000000    0.18000000000000    0.18000000000000     0
    0.19000000000000    0.19000000000000    0.19000000000000     0
    0.20000000000000    0.20000000000000    0.20000000000000     0
    0.21000000000000    0.21000000000000    0.21000000000000     0
    0.22000000000000    0.22000000000000    0.22000000000000     0
    0.23000000000000    0.23000000000000    0.23000000000000     0
    0.24000000000000    0.24000000000000    0.24000000000000     0
    0.25000000000000    0.25000000000000    0.25000000000000     0
    0.26000000000000    0.26000000000000    0.26000000000000     0
    0.27000000000000    0.27000000000000    0.27000000000000     0
    0.28000000000000    0.28000000000000    0.28000000000000     0
    0.29000000000000    0.29000000000000    0.29000000000000     0
    0.30000000000000    0.30000000000000    0.30000000000000     0
    0.31000000000000    0.31000000000000    0.31000000000000     0
    0.32000000000000    0.32000000000000    0.32000000000000     0
    0.33000000000000    0.33000000000000    0.33000000000000     0
    0.34000000000000    0.34000000000000    0.34000000000000     0
    0.35000000000000    0.35000000000000    0.35000000000000     0
    0.36000000000000    0.36000000000000    0.36000000000000     0
    0.37000000000000    0.37000000000000    0.37000000000000     0
    0.38000000000000    0.38000000000000    0.38000000000000     0
    0.39000000000000    0.39000000000000    0.39000000000000     0
    0.40000000000000    0.40000000000000    0.40000000000000     0
    0.41000000000000    0.41000000000000    0.41000000000000     0
    0.42000000000000    0.42000000000000    0.42000000000000     0
    0.43000000000000    0.43000000000000    0.43000000000000     0
    0.44000000000000    0.44000000000000    0.44000000000000     0
    0.45000000000000    0.45000000000000    0.45000000000000     0
    0.46000000000000    0.46000000000000    0.46000000000000     0
    0.47000000000000    0.47000000000000    0.47000000000000     0
    0.48000000000000    0.48000000000000    0.48000000000000     0
    0.49000000000000    0.49000000000000    0.49000000000000     0
   -0.50000000000000   -0.50000000000000   -0.50000000000000     0
   -0.50000000000000   -0.50000000000000   -0.50000000000000     0
    0.49285714285714   -0.48571428571429    0.49285714285714     0
    0.48571428571429   -0.47142857142857    0.48571428571429     0
    0.47857142857143   -0.45714285714286    0.47857142857143     0
    0.47142857142857   -0.44285714285714    0.47142857142857     0
    0.46428571428571   -0.42857142857143    0.46428571428571     0
    0.45714285714286   -0.41428571428571    0.45714285714286     0
    0.45000000000000   -0.40000000000000    0.45000000000000     0
    0.44285714285714   -0.38571428571429    0.44285714285714     0
    0.43571428571429   -0.37142857142857    0.43571428571429     0
    0.42857142857143   -0.35714285714286    0.42857142857143     0
    0.42142857142857   -0.34285714285714    0.42142857142857     0
    0.41428571428571   -0.32857142857143    0.41428571428571     0
    0.40714285714286   -0.31428571428571    0.40714285714286     0
    0.40000000000000   -0.30000000000000    0.40000000000000     0
    0.39285714285714   -0.28571428571429    0.39285714285714     0
    0.38571428571429   -0.27142857142857    0.38571428571429     0
    0.37857142857143   -0.25714285714286    0.37857142857143     0
    0.37142857142857   -0.24285714285714    0.37142857142857     0
    0.36428571428571   -0.22857142857143    0.36428571428571     0
    0.35714285714286   -0.21428571428571    0.35714285714286     0
    0.35000000000000   -0.20000000000000    0.35000000000000     0
    0.34285714285714   -0.18571428571429    0.34285714285714     0
    0.33571428571429   -0.17142857142857    0.33571428571429     0
    0.32857142857143   -0.15714285714286    0.32857142857143     0
    0.32142857142857   -0.14285714285714    0.32142857142857     0
    0.31428571428571   -0.12857142857143    0.31428571428571     0
    0.30714285714286   -0.11428571428571    0.30714285714286     0
    0.30000000000000   -0.10000000000000    0.30000000000000     0
    0.29285714285714   -0.08571428571429    0.29285714285714     0
    0.28571428571429   -0.07142857142857    0.28571428571429     0
    0.27857142857143   -0.05714285714286    0.27857142857143     0
    0.27142857142857   -0.04285714285714    0.27142857142857     0
    0.26428571428571   -0.02857142857143    0.26428571428571     0
    0.25714285714286   -0.01428571428571    0.25714285714286     0
    0.25000000000000    0.00000000000000    0.25000000000000     0
    0.25000000000000    0.00000000000000    0.25000000000000     0
    0.26250000000000    0.00000000000000    0.23750000000000     0
    0.27500000000000    0.00000000000000    0.22500000000000     0
    0.28750000000000    0.00000000000000    0.21250000000000     0
    0.30000000000000    0.00000000000000    0.20000000000000     0
    0.31250000000000    0.00000000000000    0.18750000000000     0
    0.32500000000000    0.00000000000000    0.17500000000000     0
    0.33750000000000    0.00000000000000    0.16250000000000     0
    0.35000000000000    0.00000000000000    0.15000000000000     0
    0.36250000000000    0.00000000000000    0.13750000000000     0
    0.37500000000000    0.00000000000000    0.12500000000000     0
    0.38750000000000    0.00000000000000    0.11250000000000     0
    0.40000000000000    0.00000000000000    0.10000000000000     0
    0.41250000000000    0.00000000000000    0.08750000000000     0
    0.42500000000000    0.00000000000000    0.07500000000000     0
    0.43750000000000    0.00000000000000    0.06250000000000     0
    0.45000000000000    0.00000000000000    0.05000000000000     0
    0.46250000000000    0.00000000000000    0.03750000000000     0
    0.47500000000000    0.00000000000000    0.02500000000000     0
    0.48750000000000    0.00000000000000    0.01250000000000     0
   -0.50000000000000    0.00000000000000    0.00000000000000     0
   -0.50000000000000    0.00000000000000    0.00000000000000     0
   -0.50000000000000   -0.01219512195122    0.01219512195122     0
   -0.50000000000000   -0.02439024390244    0.02439024390244     0
   -0.50000000000000   -0.03658536585366    0.03658536585366     0
   -0.50000000000000   -0.04878048780488    0.04878048780488     0
   -0.50000000000000   -0.06097560975610    0.06097560975610     0
    0.50000000000000   -0.07317073170732    0.07317073170732     0
    0.50000000000000   -0.08536585365854    0.08536585365854     0
    0.50000000000000   -0.09756097560976    0.09756097560976     0
    0.50000000000000   -0.10975609756098    0.10975609756098     0
    0.50000000000000   -0.12195121951220    0.12195121951220     0
    0.50000000000000   -0.13414634146341    0.13414634146341     0
   -0.50000000000000   -0.14634146341463    0.14634146341463     0
   -0.50000000000000   -0.15853658536585    0.15853658536585     0
   -0.50000000000000   -0.17073170731707    0.17073170731707     0
   -0.50000000000000   -0.18292682926829    0.18292682926829     0
   -0.50000000000000   -0.19512195121951    0.19512195121951     0
   -0.50000000000000   -0.20731707317073    0.20731707317073     0
   -0.50000000000000   -0.21951219512195    0.21951219512195     0
   -0.50000000000000   -0.23170731707317    0.23170731707317     0
   -0.50000000000000   -0.24390243902439    0.24390243902439     0
   -0.50000000000000   -0.25609756097561    0.25609756097561     0
   -0.50000000000000   -0.26829268292683    0.26829268292683     0
   -0.50000000000000   -0.28048780487805    0.28048780487805     0
   -0.50000000000000   -0.29268292682927    0.29268292682927     0
   -0.50000000000000   -0.30487804878049    0.30487804878049     0
   -0.50000000000000   -0.31707317073171    0.31707317073171     0
   -0.50000000000000   -0.32926829268293    0.32926829268293     0
   -0.50000000000000   -0.34146341463415    0.34146341463415     0
   -0.50000000000000   -0.35365853658537    0.35365853658537     0
   -0.50000000000000   -0.36585365853659    0.36585365853659     0
   -0.50000000000000   -0.37804878048780    0.37804878048780     0
   -0.50000000000000   -0.39024390243902    0.39024390243902     0
   -0.50000000000000   -0.40243902439024    0.40243902439024     0
   -0.50000000000000   -0.41463414634146    0.41463414634146     0
   -0.50000000000000   -0.42682926829268    0.42682926829268     0
   -0.50000000000000   -0.43902439024390    0.43902439024390     0
   -0.50000000000000   -0.45121951219512    0.45121951219512     0
   -0.50000000000000   -0.46341463414634    0.46341463414634     0
   -0.50000000000000   -0.47560975609756    0.47560975609756     0
   -0.50000000000000   -0.48780487804878    0.48780487804878     0
   -0.50000000000000   -0.50000000000000   -0.50000000000000     0
   -0.50000000000000   -0.50000000000000   -0.50000000000000     0
   -0.49285714285714   -0.49285714285714    0.48571428571429     0
   -0.48571428571429   -0.48571428571429    0.47142857142857     0
   -0.47857142857143   -0.47857142857143    0.45714285714286     0
   -0.47142857142857   -0.47142857142857    0.44285714285714     0
   -0.46428571428571   -0.46428571428571    0.42857142857143     0
   -0.45714285714286   -0.45714285714286    0.41428571428571     0
   -0.45000000000000   -0.45000000000000    0.40000000000000     0
   -0.44285714285714   -0.44285714285714    0.38571428571429     0
   -0.43571428571429   -0.43571428571429    0.37142857142857     0
   -0.42857142857143   -0.42857142857143    0.35714285714286     0
   -0.42142857142857   -0.42142857142857    0.34285714285714     0
   -0.41428571428571   -0.41428571428571    0.32857142857143     0
   -0.40714285714286   -0.40714285714286    0.31428571428571     0
   -0.40000000000000   -0.40000000000000    0.30000000000000     0
   -0.39285714285714   -0.39285714285714    0.28571428571429     0
   -0.38571428571429   -0.38571428571429    0.27142857142857     0
   -0.37857142857143   -0.37857142857143    0.25714285714286     0
   -0.37142857142857   -0.37142857142857    0.24285714285714     0
   -0.36428571428571   -0.36428571428571    0.22857142857143     0
   -0.35714285714286   -0.35714285714286    0.21428571428571     0
   -0.35000000000000   -0.35000000000000    0.20000000000000     0
   -0.34285714285714   -0.34285714285714    0.18571428571429     0
   -0.33571428571429   -0.33571428571429    0.17142857142857     0
   -0.32857142857143   -0.32857142857143    0.15714285714286     0
   -0.32142857142857   -0.32142857142857    0.14285714285714     0
   -0.31428571428571   -0.31428571428571    0.12857142857143     0
   -0.30714285714286   -0.30714285714286    0.11428571428571     0
   -0.30000000000000   -0.30000000000000    0.10000000000000     0
   -0.29285714285714   -0.29285714285714    0.08571428571429     0
   -0.28571428571429   -0.28571428571429    0.07142857142857     0
   -0.27857142857143   -0.27857142857143    0.05714285714286     0
   -0.27142857142857   -0.27142857142857    0.04285714285714     0
   -0.26428571428571   -0.26428571428571    0.02857142857143     0
   -0.25714285714286   -0.25714285714286    0.01428571428571     0
   -0.25000000000000   -0.25000000000000    0.00000000000000     0
    0.25000000000000    0.00000000000000    0.25000000000000     0
    0.23750000000000    0.00000000000000    0.23750000000000     0
    0.22500000000000    0.00000000000000    0.22500000000000     0
    0.21250000000000   -0.00000000000000    0.21250000000000     0
    0.20000000000000    0.00000000000000    0.20000000000000     0
    0.18750000000000    0.00000000000000    0.18750000000000     0
    0.17500000000000    0.00000000000000    0.17500000000000     0
    0.16250000000000    0.00000000000000    0.16250000000000     0
    0.15000000000000   -0.00000000000000    0.15000000000000     0
    0.13750000000000    0.00000000000000    0.13750000000000     0
    0.12500000000000    0.00000000000000    0.12500000000000     0
    0.11250000000000    0.00000000000000    0.11250000000000     0
    0.10000000000000    0.00000000000000    0.10000000000000     0
    0.08750000000000   -0.00000000000000    0.08750000000000     0
    0.07500000000000    0.00000000000000    0.07500000000000     0
    0.06250000000000    0.00000000000000    0.06250000000000     0
    0.05000000000000    0.00000000000000    0.05000000000000     0
    0.03750000000000    0.00000000000000    0.03750000000000     0
    0.02500000000000   -0.00000000000000    0.02500000000000     0
    0.01250000000000    0.00000000000000    0.01250000000000     0
    0.00000000000000    0.00000000000000    0.00000000000000     0
