This file is generated by VASPKIT code
 1.000000
    3.5057980000000000    0.0000000000000000    0.0000000000000000
    0.0000000000000002    3.5057980000000000    0.0000000000000000
    0.0000000000000002    0.0000000000000002    3.5057980000000000
   Ni
     4
Direct
    0.0000000000000000    0.0000000000000000    0.0000000000000000     Ni1
    0.5000000000000000    0.5000000000000000    0.0000000000000000     Ni2
    0.5000000000000000    0.0000000000000000    0.5000000000000000     Ni3
    0.0000000000000000    0.5000000000000000    0.5000000000000000     Ni4
