Parameters to Generate KPOINTS (Don't Edit This Line):     0.0200    37     2     6
    49
Reciprocal lattice
    0.00000000000000    0.00000000000000    0.00000000000000     1
    0.05555555555556    0.00000000000000    0.00000000000000     6
    0.11111111111111    0.00000000000000    0.00000000000000     6
    0.16666666666667    0.00000000000000    0.00000000000000     6
    0.22222222222222    0.00000000000000    0.00000000000000     6
    0.27777777777778    0.00000000000000    0.00000000000000     6
    0.33333333333333    0.00000000000000    0.00000000000000     6
    0.38888888888889    0.00000000000000    0.00000000000000     6
    0.44444444444444    0.00000000000000    0.00000000000000     6
    0.50000000000000    0.00000000000000    0.00000000000000     3
    0.05555555555556    0.05555555555556    0.00000000000000     6
    0.11111111111111    0.05555555555556    0.00000000000000    12
    0.16666666666667    0.05555555555556    0.00000000000000    12
    0.22222222222222    0.05555555555556    0.00000000000000    12
    0.27777777777778    0.05555555555556    0.00000000000000    12
    0.33333333333333    0.05555555555556    0.00000000000000    12
    0.38888888888889    0.05555555555556    0.00000000000000    12
    0.44444444444444    0.05555555555556    0.00000000000000    12
    0.11111111111111    0.11111111111111    0.00000000000000     6
    0.16666666666667    0.11111111111111    0.00000000000000    12
    0.22222222222222    0.11111111111111    0.00000000000000    12
    0.27777777777778    0.11111111111111    0.00000000000000    12
    0.33333333333333    0.11111111111111    0.00000000000000    12
    0.38888888888889    0.11111111111111    0.00000000000000    12
    0.44444444444444    0.11111111111111    0.00000000000000     6
    0.16666666666667    0.16666666666667    0.00000000000000     6
    0.22222222222222    0.16666666666667    0.00000000000000    12
    0.27777777777778    0.16666666666667    0.00000000000000    12
    0.33333333333333    0.16666666666667    0.00000000000000    12
    0.38888888888889    0.16666666666667    0.00000000000000    12
    0.22222222222222    0.22222222222222    0.00000000000000     6
    0.27777777777778    0.22222222222222    0.00000000000000    12
    0.33333333333333    0.22222222222222    0.00000000000000    12
    0.38888888888889    0.22222222222222    0.00000000000000     6
    0.27777777777778    0.27777777777778    0.00000000000000     6
    0.33333333333333    0.27777777777778    0.00000000000000    12
    0.33333333333333    0.33333333333333    0.00000000000000     2
    0.33333300000000    0.33333330000000    0.00000000000000     0
    0.32794729945536    0.33136199258568    0.00000000000000     0
    0.32256159891073    0.32939068517136    0.00000000000000     0
    0.31717589836609    0.32741937775704    0.00000000000000     0
    0.31179019782146    0.32544807034272    0.00000000000000     0
    0.30640449727682    0.32347676292841    0.00000000000000     0
    0.33333300000000    0.33333330000000    0.00000000000000     0
    0.33673922335857    0.32573044879111    0.00000000000000     0
    0.34014544671715    0.31812759758222    0.00000000000000     0
    0.34355167007572    0.31052474637333    0.00000000000000     0
    0.34695789343429    0.30292189516444    0.00000000000000     0
    0.35036411679286    0.29531904395555    0.00000000000000     0
