ATOMIC_SPECIES
C 12.011 ../../C_ONCV_PBE-1.0.upf upf201

NUMERICAL_ORBITAL
../../C_gga_7au_100Ry_2s2p1d.orb

LATTICE_CONSTANT
1.889726

LATTICE_VECTORS
2.48116021 0 0 #latvec1
-1.24058011 2.13805749 0 #latvec2
0 0 11.99999871 #latvec3

ATOMIC_POSITIONS
Direct

C #label
0 #magnetism
2 #number of atoms
0.6667901004  0.3335801908  0.5  m  1  1  1
0.3332098996  0.6664198092  0.5  m  1  1  1
