Parameters to Generate KPOINTS (Don't Edit This Line):   0.040  0.040   19   99   3  42  36  21
   118
Reciprocal lattice
    0.00000000000000    0.00000000000000    0.00000000000000     1
    0.08333333333333    0.00000000000000    0.00000000000000     6
    0.16666666666667    0.00000000000000    0.00000000000000     6
    0.25000000000000    0.00000000000000    0.00000000000000     6
    0.33333333333333    0.00000000000000    0.00000000000000     6
    0.41666666666667    0.00000000000000    0.00000000000000     6
    0.50000000000000    0.00000000000000    0.00000000000000     3
    0.08333333333333    0.08333333333333    0.00000000000000     6
    0.16666666666667    0.08333333333333    0.00000000000000    12
    0.25000000000000    0.08333333333333    0.00000000000000    12
    0.33333333333333    0.08333333333333    0.00000000000000    12
    0.41666666666667    0.08333333333333    0.00000000000000    12
    0.16666666666667    0.16666666666667    0.00000000000000     6
    0.25000000000000    0.16666666666667    0.00000000000000    12
    0.33333333333333    0.16666666666667    0.00000000000000    12
    0.41666666666667    0.16666666666667    0.00000000000000     6
    0.25000000000000    0.25000000000000    0.00000000000000     6
    0.33333333333333    0.25000000000000    0.00000000000000    12
    0.33333333333333    0.33333333333333    0.00000000000000     2
    0.33333333333000    0.33333333333000    0.00000000000000     0
    0.32520325202927    0.32520325202927    0.00000000000000     0
    0.31707317072854    0.31707317072854    0.00000000000000     0
    0.30894308942780    0.30894308942780    0.00000000000000     0
    0.30081300812707    0.30081300812707    0.00000000000000     0
    0.29268292682634    0.29268292682634    0.00000000000000     0
    0.28455284552561    0.28455284552561    0.00000000000000     0
    0.27642276422488    0.27642276422488    0.00000000000000     0
    0.26829268292415    0.26829268292415    0.00000000000000     0
    0.26016260162341    0.26016260162341    0.00000000000000     0
    0.25203252032268    0.25203252032268    0.00000000000000     0
    0.24390243902195    0.24390243902195    0.00000000000000     0
    0.23577235772122    0.23577235772122    0.00000000000000     0
    0.22764227642049    0.22764227642049    0.00000000000000     0
    0.21951219511976    0.21951219511976    0.00000000000000     0
    0.21138211381902    0.21138211381902    0.00000000000000     0
    0.20325203251829    0.20325203251829    0.00000000000000     0
    0.19512195121756    0.19512195121756    0.00000000000000     0
    0.18699186991683    0.18699186991683    0.00000000000000     0
    0.17886178861610    0.17886178861610    0.00000000000000     0
    0.17073170731537    0.17073170731537    0.00000000000000     0
    0.16260162601463    0.16260162601463    0.00000000000000     0
    0.15447154471390    0.15447154471390    0.00000000000000     0
    0.14634146341317    0.14634146341317    0.00000000000000     0
    0.13821138211244    0.13821138211244    0.00000000000000     0
    0.13008130081171    0.13008130081171    0.00000000000000     0
    0.12195121951098    0.12195121951098    0.00000000000000     0
    0.11382113821024    0.11382113821024    0.00000000000000     0
    0.10569105690951    0.10569105690951    0.00000000000000     0
    0.09756097560878    0.09756097560878    0.00000000000000     0
    0.08943089430805    0.08943089430805    0.00000000000000     0
    0.08130081300732    0.08130081300732    0.00000000000000     0
    0.07317073170659    0.07317073170659    0.00000000000000     0
    0.06504065040585    0.06504065040585    0.00000000000000     0
    0.05691056910512    0.05691056910512    0.00000000000000     0
    0.04878048780439    0.04878048780439    0.00000000000000     0
    0.04065040650366    0.04065040650366    0.00000000000000     0
    0.03252032520293    0.03252032520293    0.00000000000000     0
    0.02439024390220    0.02439024390220    0.00000000000000     0
    0.01626016260146    0.01626016260146    0.00000000000000     0
    0.00813008130073    0.00813008130073    0.00000000000000     0
    0.00000000000000    0.00000000000000    0.00000000000000     0
    0.00000000000000    0.00000000000000    0.00000000000000     0
    0.00000000000000    0.01428571428571    0.00000000000000     0
    0.00000000000000    0.02857142857143    0.00000000000000     0
    0.00000000000000    0.04285714285714    0.00000000000000     0
    0.00000000000000    0.05714285714286    0.00000000000000     0
    0.00000000000000    0.07142857142857    0.00000000000000     0
    0.00000000000000    0.08571428571429    0.00000000000000     0
    0.00000000000000    0.10000000000000    0.00000000000000     0
    0.00000000000000    0.11428571428571    0.00000000000000     0
    0.00000000000000    0.12857142857143    0.00000000000000     0
    0.00000000000000    0.14285714285714    0.00000000000000     0
    0.00000000000000    0.15714285714286    0.00000000000000     0
    0.00000000000000    0.17142857142857    0.00000000000000     0
    0.00000000000000    0.18571428571429    0.00000000000000     0
    0.00000000000000    0.20000000000000    0.00000000000000     0
    0.00000000000000    0.21428571428571    0.00000000000000     0
    0.00000000000000    0.22857142857143    0.00000000000000     0
    0.00000000000000    0.24285714285714    0.00000000000000     0
    0.00000000000000    0.25714285714286    0.00000000000000     0
    0.00000000000000    0.27142857142857    0.00000000000000     0
    0.00000000000000    0.28571428571429    0.00000000000000     0
    0.00000000000000    0.30000000000000    0.00000000000000     0
    0.00000000000000    0.31428571428571    0.00000000000000     0
    0.00000000000000    0.32857142857143    0.00000000000000     0
    0.00000000000000    0.34285714285714    0.00000000000000     0
    0.00000000000000    0.35714285714286    0.00000000000000     0
    0.00000000000000    0.37142857142857    0.00000000000000     0
    0.00000000000000    0.38571428571429    0.00000000000000     0
    0.00000000000000    0.40000000000000    0.00000000000000     0
    0.00000000000000    0.41428571428571    0.00000000000000     0
    0.00000000000000    0.42857142857143    0.00000000000000     0
    0.00000000000000    0.44285714285714    0.00000000000000     0
    0.00000000000000    0.45714285714286    0.00000000000000     0
    0.00000000000000    0.47142857142857    0.00000000000000     0
    0.00000000000000    0.48571428571429    0.00000000000000     0
    0.00000000000000    0.50000000000000    0.00000000000000     0
    0.00000000000000    0.50000000000000    0.00000000000000     0
    0.01666666666650    0.49166666666650    0.00000000000000     0
    0.03333333333300    0.48333333333300    0.00000000000000     0
    0.04999999999950    0.47499999999950    0.00000000000000     0
    0.06666666666600    0.46666666666600    0.00000000000000     0
    0.08333333333250    0.45833333333250    0.00000000000000     0
    0.09999999999900    0.44999999999900    0.00000000000000     0
    0.11666666666550    0.44166666666550    0.00000000000000     0
    0.13333333333200    0.43333333333200    0.00000000000000     0
    0.14999999999850    0.42499999999850    0.00000000000000     0
    0.16666666666500    0.41666666666500    0.00000000000000     0
    0.18333333333150    0.40833333333150    0.00000000000000     0
    0.19999999999800    0.39999999999800    0.00000000000000     0
    0.21666666666450    0.39166666666450    0.00000000000000     0
    0.23333333333100    0.38333333333100    0.00000000000000     0
    0.24999999999750    0.37499999999750    0.00000000000000     0
    0.26666666666400    0.36666666666400    0.00000000000000     0
    0.28333333333050    0.35833333333050    0.00000000000000     0
    0.29999999999700    0.34999999999700    0.00000000000000     0
    0.31666666666350    0.34166666666350    0.00000000000000     0
    0.33333333333000    0.33333333333000    0.00000000000000     0
