ATOMIC_SPECIES
C   12.011  C_ONCV_PBE-1.0.upf
 
NUMERICAL_ORBITAL
C_gga_7au_100Ry_2s2p1d.orb
 
LATTICE_CONSTANT
1.889726
 
LATTICE_VECTORS
2.468816398723  0.000000000000  0.000000000000
-1.23440819936  2.138057718574  0.000000000000
0.000000000000  0.000000000000  12.00000000000
 
ATOMIC_POSITIONS
Direct
 
C 
0.000
2
0.666666666667  0.333333333333  0.500000000000  1  1  1  mag  0.0
0.333333333333  0.666666666667  0.500000000000  1  1  1  mag  0.0
