SYSTEM = PbTiO3
ISMEAR = -5
LASPH = T
PREC = Accurate
ADDGRID = .TRUE.
LREAL = F
EDIFF = 1E-9
IBRION = 8
LEPSILON = .TRUE.
 
