Generated by cif2cell 1.1.5 from COD ref
   3.11100000000000     
     0.8659627384295974   -0.4999638201405134   -0.0000000000000000
     0.0000000000000000    0.9999276402810268    0.0000000000000000
    -0.0000000000000000    0.0000000000000000    1.6011892471017091
   Al   N 
     2     2
Direct
  0.3333333333333357  0.6666666666666643  0.0016065365902698
  0.6666666666666643  0.3333333333333357  0.5016065365902699
  0.3333333333333357  0.6666666666666643  0.3833934634097282
  0.6666666666666643  0.3333333333333357  0.8833934634097281
 
  0.00000000E+00  0.00000000E+00  0.00000000E+00
  0.00000000E+00  0.00000000E+00  0.00000000E+00
  0.00000000E+00  0.00000000E+00  0.00000000E+00
  0.00000000E+00  0.00000000E+00  0.00000000E+00
