ISMEAR = 0
SIGMA = 0.01
EDIFF = 1E-08
PREC = Accurate
IALGO = 38
LREAL = .FALSE.
LWAVE = .FLASE.
LCHARG = .FLASE.
ADDGRID= .TRUE.
IBRION = 6
LPHON_DISPERSION = .TRUE.
PHON_NWRITE	= 1	 
