Generated by VASPKIT code
 1.000000
    7.6409958775018314    0.0000000000000000    0.0000000000000000
    3.8204979387509166    6.6172965401287547    0.0000000000000000
    3.8204979387509166    2.2057655133762517    6.2388470088630950
   Si
    16
Selective Dynamics
Direct
    0.0000000000000000    0.0000000000000000    0.0000000000000000    F  F  F    Si001
    0.0000000000000000    0.0000000000000000    0.5000000000000000    F  F  F    Si002
    0.0000000000000000    0.5000000000000000    0.0000000000000000    F  F  F    Si003
    0.0000000000000000    0.5000000000000000    0.5000000000000000    F  F  F    Si004
    0.5000000000000000    0.0000000000000000    0.0000000000000000    F  F  F    Si005
    0.5000000000000000    0.0000000000000000    0.5000000000000000    F  F  F    Si006
    0.5000000000000000    0.5000000000000000    0.0000000000000000    F  F  F    Si007
    0.5000000000000000    0.5000000000000000    0.5000000000000000    F  F  F    Si008
    0.1250000000000000    0.1250000000000000    0.1250000000000000    F  F  F    Si009
    0.1250000000000000    0.1250000000000000    0.6250000000000000    F  F  F    Si010
    0.1250000000000000    0.6250000000000000    0.1250000000000000    F  F  F    Si011
    0.1250000000000000    0.6250000000000000    0.6250000000000000    F  F  F    Si012
    0.6250000000000000    0.1250000000000000    0.1250000000000000    F  F  F    Si013
    0.6250000000000000    0.1250000000000000    0.6250000000000000    F  F  F    Si014
    0.6250000000000000    0.6250000000000000    0.1250000000000000    F  F  F    Si015
    0.6250000000000000    0.6250000000000000    0.6250000000000000    F  F  F    Si016
