K-Spacing Value to Generate K-Mesh: 0.020
0
Monkhorst-Pack
  15  15   4
0.0  0.0  0.0
