KPT-Resolved Value to Generate K-Mesh: 0.020
0
Monkhorst-Pack
  6 6 6
0.0  0.0  0.0
