2x2x2 Supercell for MD calculation
 1.000000
    8.0778599999999994    0.0000000000000000    0.0000000000000000
    0.0000000000000005    8.0778599999999994    0.0000000000000000
    0.0000000000000005    0.0000000000000005    8.0778599999999994
   Al
    32
Direct
    0.0000000000000000    0.0000000000000000    0.0000000000000000     Al1
    0.0000000000000000    0.0000000000000000    0.5000000000000000     Al2
    0.0000000000000000    0.5000000000000000    0.0000000000000000     Al3
    0.0000000000000000    0.5000000000000000    0.5000000000000000     Al4
    0.5000000000000000    0.0000000000000000    0.0000000000000000     Al5
    0.5000000000000000    0.0000000000000000    0.5000000000000000     Al6
    0.5000000000000000    0.5000000000000000    0.0000000000000000     Al7
    0.5000000000000000    0.5000000000000000    0.5000000000000000     Al8
    0.0000000000000000    0.2500000000000000    0.2500000000000000     Al9
    0.0000000000000000    0.2500000000000000    0.7500000000000000    Al10
    0.0000000000000000    0.7500000000000000    0.2500000000000000    Al11
    0.0000000000000000    0.7500000000000000    0.7500000000000000    Al12
    0.5000000000000000    0.2500000000000000    0.2500000000000000    Al13
    0.5000000000000000    0.2500000000000000    0.7500000000000000    Al14
    0.5000000000000000    0.7500000000000000    0.2500000000000000    Al15
    0.5000000000000000    0.7500000000000000    0.7500000000000000    Al16
    0.2500000000000000    0.0000000000000000    0.2500000000000000    Al17
    0.2500000000000000    0.0000000000000000    0.7500000000000000    Al18
    0.2500000000000000    0.5000000000000000    0.2500000000000000    Al19
    0.2500000000000000    0.5000000000000000    0.7500000000000000    Al20
    0.7500000000000000    0.0000000000000000    0.2500000000000000    Al21
    0.7500000000000000    0.0000000000000000    0.7500000000000000    Al22
    0.7500000000000000    0.5000000000000000    0.2500000000000000    Al23
    0.7500000000000000    0.5000000000000000    0.7500000000000000    Al24
    0.2500000000000000    0.2500000000000000    0.0000000000000000    Al25
    0.2500000000000000    0.2500000000000000    0.5000000000000000    Al26
    0.2500000000000000    0.7500000000000000    0.0000000000000000    Al27
    0.2500000000000000    0.7500000000000000    0.5000000000000000    Al28
    0.7500000000000000    0.2500000000000000    0.0000000000000000    Al29
    0.7500000000000000    0.2500000000000000    0.5000000000000000    Al30
    0.7500000000000000    0.7500000000000000    0.0000000000000000    Al31
    0.7500000000000000    0.7500000000000000    0.5000000000000000    Al32
