KPT-Resolved Value to Generate K-Mesh: 0.030
0
Gamma
  16  16  16
0.0  0.0  0.0
