POSCAR file written by OVITO Basic 3.10.6
1
15.0 0.0 0.0
0.0 15.0 0.0
0.0 0.0 15.0
C O H 
6 1 6 
Cartesian
8.35499 6.77155 7.33531
8.37454 8.16413 7.26114
7.16749 8.85768 7.14141
5.95474 8.18019 7.08965
5.94299 6.78726 7.15339
7.14187 6.08451 7.27813
7.1358 10.23746 7.07129
9.28491 6.22046 7.43719
9.32336 8.68809 7.29798
5.02591 8.73452 7.0
5.0 6.25121 7.10714
7.13024 5.0 7.331
8.04794 10.56898 6.52889
