ATOMIC_SPECIES
C 12.011 ../../C_ONCV_PBE-1.0.upf upf201

NUMERICAL_ORBITAL
../../C_gga_7au_100Ry_2s2p1d.orb

LATTICE_CONSTANT
1.889726

LATTICE_VECTORS
3.56251545 -0.00890629 -0.00890629 #latvec1
-0.00890629 3.56251545 -0.00890629 #latvec2
-0.00890629 -0.00890629 3.56251545 #latvec3

ATOMIC_POSITIONS
Direct

C #label
0 #magnetism
8 #number of atoms
0.250073120229  0.250073120229  0.250073387775  m  1  1  1
0.999866349439  0.999866349439  0.00010875931636  m  1  1  1
0.250142216587  0.75010439688  0.749945177687  m  1  1  1
0.999825796886  0.499857092754  0.500156877876  m  1  1  1
0.75010439688  0.250142216587  0.749945177687  m  1  1  1
0.499857092754  0.999825796886  0.500156877876  m  1  1  1
0.750133650561  0.750133650561  0.249891240684  m  1  1  1
0.499823845452  0.499823845452  0.000177803645261  m  1  1  1
