ATOMIC_SPECIES
C 12.011 ../../C_ONCV_PBE-1.0.upf upf201

NUMERICAL_ORBITAL
../../C_gga_7au_100Ry_2s2p1d.orb

LATTICE_CONSTANT
1.889726

LATTICE_VECTORS
3.56251545 -0.01781258 -0.01781258 #latvec1
-0.01781258 3.56251545 -0.01781258 #latvec2
-0.01781258 -0.01781258 3.56251545 #latvec3

ATOMIC_POSITIONS
Direct

C #label
0 #magnetism
8 #number of atoms
0.25014781531  0.25014781531  0.25014814637  m  1  1  1
0.999795525644  0.999795525644  3.72687262993e-05  m  1  1  1
0.250211226266  0.750173210155  0.750025743218  m  1  1  1
0.999749878317  0.499784369647  0.50009330247  m  1  1  1
0.750173210155  0.250211226266  0.750025743218  m  1  1  1
0.499784369647  0.999749878317  0.50009330247  m  1  1  1
0.750204474356  0.750204474356  0.249962731274  m  1  1  1
0.499747914723  0.499747914723  0.000116786737489  m  1  1  1
