 CrI3 single layer POSCAR               
   1.00000000000000     
     6.9519309594429322    0.0002110219136825   -0.0000623775059351
    -3.4757827184858296    6.0206599440686652   -0.0001247909451322
    -0.0001347481177419   -0.0003891915226439   14.9965788111892646
   I    Cr
     6     2
Direct
  0.6665799949999993  0.9734400050000005  0.6032463520290463
  0.0265599780000016  0.6931499720000005  0.6032463520290463
  0.3068499769999988  0.3334200139999979  0.6032463520290463
  0.6667500049999973  0.6932300020000000  0.3967536479709537
  0.3067700209999984  0.9735200350000000  0.3967536479709537
  0.0264800050000034  0.3332500089999968  0.3967536479709537
  0.0000000000000000  0.0000000000000000  0.5000993779570635
  0.3333300270000024  0.6666700620000015  0.4999158983744820
 
  0.00000000E+00  0.00000000E+00  0.00000000E+00
  0.00000000E+00  0.00000000E+00  0.00000000E+00
  0.00000000E+00  0.00000000E+00  0.00000000E+00
  0.00000000E+00  0.00000000E+00  0.00000000E+00
  0.00000000E+00  0.00000000E+00  0.00000000E+00
  0.00000000E+00  0.00000000E+00  0.00000000E+00
  0.00000000E+00  0.00000000E+00  0.00000000E+00
  0.00000000E+00  0.00000000E+00  0.00000000E+00
