Fe54 
1.0
8.5509028182435323e+00 6.3188657865170805e-19 3.4694469519536142e-18 
-3.8709932399113071e-02 8.5532254673421590e+00 3.4694469519536142e-18 
-3.7113982744283305e-02 -1.3751083735838252e-02 8.4451048900616765e+00 
Fe 
54 
Cartesian
  -0.0154982198    0.0636486205    0.0143698006
   1.4272142440    1.4396926462    1.4043077786
  -0.1512380499    0.0145789592    2.7735583830
   1.3948436454    1.3583628605    4.2899850983
  -0.0697795282   -0.0777248826    5.6194735449
   1.4275974221    1.4954021576    7.0060594709
   0.0131542946    2.8101196532    0.0097191771
   1.3629700249    4.2465437757    1.4065440855
  -0.0240713888    2.8537061998    2.8014388365
   1.4310995239    4.2382167027    4.2512742088
  -0.1015037123    2.8673230796    5.7207938113
   1.2364142129    4.2609088858    7.0887629486
   0.0671671178    5.7296542628    0.0521748095
   1.3890842948    7.1699770143    1.3720687574
  -0.0864025338    5.7390816617    2.7373916650
   1.4421799928    6.9668689478    4.2202916103
  -0.1880885597    5.5934135119    5.4840041866
   1.2718505981    7.1031284036    7.1493285096
   2.8538765043    0.0119339099    0.0124845813
   4.3245130649    1.4406649623    1.4172388938
   2.8728957534    0.0402116980    2.8208804737
   4.2897605661    1.4777276694    4.2798985250
   2.9342343231   -0.0877284881    5.6696728993
   4.1547776983    1.4072680826    7.0211949992
   2.8379721008    2.9298073595    0.0471186952
   4.3014817707    4.2074806752    1.4128435613
   2.9034834354    2.8803402380    2.8168785527
   4.2336822104    4.2628246711    4.1361841127
   2.7970496335    2.8466789353    5.6803747114
   4.2078599367    4.2551602474    6.9909272020
   2.8132352857    5.6620216316    0.0332805727
   4.2741187976    7.2043709938    1.3142083852
   2.7396308206    5.6896622148    2.7933955255
   4.3120130354    7.1227500361    4.2425496628
   2.7396945665    5.6620823609    5.6944423972
   4.1689848803    7.0865145718    7.1571233336
   5.7244312878    0.0776284290   -0.0710424490
   7.1658143817    1.3072113891    1.4342186730
   5.7534590979    0.0501460985    2.8586609913
   7.1281783978    1.3768511088    4.3762046519
   5.6503205106   -0.1021121942    5.6476095016
   7.0757924553    1.4449352550    7.0464380630
   5.6679926770    2.8651747200    0.0042795887
   7.0993996648    4.3243067528    1.3483196168
   5.6338792144    2.8165614671    2.7930950738
   7.1232816568    4.2711132154    4.2345686753
   5.6932511844    2.7950241872    5.6265719802
   7.1934882225    4.2419778288    7.0168369540
   5.6639412939    5.7408655679   -0.0327012107
   7.1557143976    7.1772398714    1.4584592188
   5.7096179500    5.6666451772    2.8493816858
   7.1366148515    7.1369062582    4.2342652682
   5.6801129052    5.7122550284    5.5871984744
   7.0854025357    7.1339008116    7.1143622560
