ATOMIC_SPECIES
C   12.011  ../../C_ONCV_PBE-1.0.upf
 
NUMERICAL_ORBITAL
../../C_gga_7au_100Ry_2s2p1d.orb
 
LATTICE_CONSTANT
1.889726
 
LATTICE_VECTORS
3.562515835995  0.000000000000  0.000000000000
0.000000000000  3.562515835995  0.000000000000
0.000000000000  0.000000000000  3.562515835995
 
ATOMIC_POSITIONS
Direct
 
C 
0.000
8
0.250000000000  0.250000000000  0.250000000000  1  1  1  mag  0.0
0.000000000000  0.000000000000  0.000000000000  1  1  1  mag  0.0
0.250000000000  0.750000000000  0.750000000000  1  1  1  mag  0.0
0.000000000000  0.500000000000  0.500000000000  1  1  1  mag  0.0
0.750000000000  0.250000000000  0.750000000000  1  1  1  mag  0.0
0.500000000000  0.000000000000  0.500000000000  1  1  1  mag  0.0
0.750000000000  0.750000000000  0.250000000000  1  1  1  mag  0.0
0.500000000000  0.500000000000  0.000000000000  1  1  1  mag  0.0
