Generated by cif2cell 1.1.5 from COD ref
   5.65370000000000     
     0.0000000000000000    0.4999999999999999    0.4999999999999999
     0.4999999999999999    0.0000000000000000    0.4999999999999999
     0.4999999999999999    0.4999999999999999    0.0000000000000000
   As   Ga
     1     1
Direct
  0.2500000000000000  0.2500000000000000  0.2500000000000000
  0.0000000000000000  0.0000000000000000  0.0000000000000000
 
  0.00000000E+00  0.00000000E+00  0.00000000E+00
  0.00000000E+00  0.00000000E+00  0.00000000E+00
