Parameters to Generate KPOINTS (don't Edit This Line):     0.0400    29   648     4
  2622
Reciprocal lattice
    0.00000000000000    0.00000000000000    0.00000000000000     1
    0.12500000000000    0.00000000000000    0.00000000000000     8
    0.25000000000000    0.00000000000000    0.00000000000000     8
    0.37500000000000    0.00000000000000    0.00000000000000     8
    0.50000000000000    0.00000000000000    0.00000000000000     4
    0.12500000000000    0.12500000000000    0.00000000000000     6
    0.25000000000000    0.12500000000000    0.00000000000000    24
    0.37500000000000    0.12500000000000    0.00000000000000    24
    0.50000000000000    0.12500000000000    0.00000000000000    24
   -0.37500000000000    0.12500000000000    0.00000000000000    24
   -0.25000000000000    0.12500000000000    0.00000000000000    24
   -0.12500000000000    0.12500000000000    0.00000000000000    12
    0.25000000000000    0.25000000000000    0.00000000000000     6
    0.37500000000000    0.25000000000000    0.00000000000000    24
    0.50000000000000    0.25000000000000    0.00000000000000    24
   -0.37500000000000    0.25000000000000    0.00000000000000    24
   -0.25000000000000    0.25000000000000    0.00000000000000    12
    0.37500000000000    0.37500000000000    0.00000000000000     6
    0.50000000000000    0.37500000000000    0.00000000000000    24
   -0.37500000000000    0.37500000000000    0.00000000000000    12
    0.50000000000000    0.50000000000000    0.00000000000000     3
    0.37500000000000    0.25000000000000    0.12500000000000    24
    0.50000000000000    0.25000000000000    0.12500000000000    48
   -0.37500000000000    0.25000000000000    0.12500000000000    24
    0.50000000000000    0.37500000000000    0.12500000000000    24
   -0.37500000000000    0.37500000000000    0.12500000000000    48
   -0.25000000000000    0.37500000000000    0.12500000000000    24
   -0.37500000000000    0.50000000000000    0.12500000000000    12
   -0.25000000000000    0.50000000000000    0.25000000000000     6
    0.00000000000000    0.00000000000000    0.00000000000000     0
    0.00674860726319    0.00674860726319    0.00000000000000     0
    0.01349721452638    0.01349721452638    0.00000000000000     0
    0.02024582178957    0.02024582178957    0.00000000000000     0
    0.02699442905276    0.02699442905276    0.00000000000000     0
    0.00674860726319    0.00674860726319    0.00000000000000     0
    0.01349721452638    0.01349721452638    0.00000000000000     0
    0.02024582178957    0.02024582178957    0.00000000000000     0
    0.02699442905276    0.02699442905276    0.00000000000000     0
    0.00674860726319    0.00674860726319    0.00000000000000     0
    0.01349721452638    0.01349721452638    0.00000000000000     0
    0.02024582178957    0.02024582178957    0.00000000000000     0
    0.02699442905276    0.02699442905276    0.00000000000000     0
    0.00674860726319    0.00674860726319    0.00000000000000     0
    0.01349721452638    0.01349721452638    0.00000000000000     0
    0.02024582178957    0.02024582178957    0.00000000000000     0
    0.02699442905276    0.02699442905276    0.00000000000000     0
    0.00674860726319    0.00674860726319    0.00000000000000     0
    0.01349721452638    0.01349721452638    0.00000000000000     0
    0.02024582178957    0.02024582178957    0.00000000000000     0
    0.02699442905276    0.02699442905276    0.00000000000000     0
    0.00674860726319    0.00674860726319    0.00000000000000     0
    0.01349721452638    0.01349721452638    0.00000000000000     0
    0.02024582178957    0.02024582178957    0.00000000000000     0
    0.02699442905276    0.02699442905276    0.00000000000000     0
    0.00674860726319    0.00674860726319    0.00000000000000     0
    0.01349721452638    0.01349721452638    0.00000000000000     0
    0.02024582178957    0.02024582178957    0.00000000000000     0
    0.02699442905276    0.02699442905276    0.00000000000000     0
    0.00674860726319    0.00674860726319    0.00000000000000     0
    0.01349721452638    0.01349721452638    0.00000000000000     0
    0.02024582178957    0.02024582178957    0.00000000000000     0
    0.02699442905276    0.02699442905276    0.00000000000000     0
    0.00674860726319    0.00674860726319    0.00000000000000     0
    0.01349721452638    0.01349721452638    0.00000000000000     0
    0.02024582178957    0.02024582178957    0.00000000000000     0
    0.02699442905276    0.02699442905276    0.00000000000000     0
    0.00674860726319    0.00674860726319    0.00000000000000     0
    0.01349721452638    0.01349721452638    0.00000000000000     0
    0.02024582178957    0.02024582178957    0.00000000000000     0
    0.02699442905276    0.02699442905276    0.00000000000000     0
    0.00674860726319    0.00674860726319    0.00000000000000     0
    0.01349721452638    0.01349721452638    0.00000000000000     0
    0.02024582178957    0.02024582178957    0.00000000000000     0
    0.02699442905276    0.02699442905276    0.00000000000000     0
    0.00674860726319    0.00674860726319    0.00000000000000     0
    0.01349721452638    0.01349721452638    0.00000000000000     0
    0.02024582178957    0.02024582178957    0.00000000000000     0
    0.02699442905276    0.02699442905276    0.00000000000000     0
    0.00674860726319    0.00674860726319    0.00000000000000     0
    0.01349721452638    0.01349721452638    0.00000000000000     0
    0.02024582178957    0.02024582178957    0.00000000000000     0
    0.02699442905276    0.02699442905276    0.00000000000000     0
    0.00674860726319    0.00674860726319    0.00000000000000     0
    0.01349721452638    0.01349721452638    0.00000000000000     0
    0.02024582178957    0.02024582178957    0.00000000000000     0
    0.02699442905276    0.02699442905276    0.00000000000000     0
    0.00674860726319    0.00674860726319    0.00000000000000     0
    0.01349721452638    0.01349721452638    0.00000000000000     0
    0.02024582178957    0.02024582178957    0.00000000000000     0
    0.02699442905276    0.02699442905276    0.00000000000000     0
    0.00674860726319    0.00674860726319    0.00000000000000     0
    0.01349721452638    0.01349721452638    0.00000000000000     0
    0.02024582178957    0.02024582178957    0.00000000000000     0
    0.02699442905276    0.02699442905276    0.00000000000000     0
    0.00674860726319    0.00674860726319    0.00000000000000     0
    0.01349721452638    0.01349721452638    0.00000000000000     0
    0.02024582178957    0.02024582178957    0.00000000000000     0
    0.02699442905276    0.02699442905276    0.00000000000000     0
    0.00674860726319    0.00674860726319    0.00000000000000     0
    0.01349721452638    0.01349721452638    0.00000000000000     0
    0.02024582178957    0.02024582178957    0.00000000000000     0
    0.02699442905276    0.02699442905276    0.00000000000000     0
    0.00674860726319    0.00674860726319    0.00000000000000     0
    0.01349721452638    0.01349721452638    0.00000000000000     0
    0.02024582178957    0.02024582178957    0.00000000000000     0
    0.02699442905276    0.02699442905276    0.00000000000000     0
    0.00674860726319    0.00674860726319    0.00000000000000     0
    0.01349721452638    0.01349721452638    0.00000000000000     0
    0.02024582178957    0.02024582178957    0.00000000000000     0
    0.02699442905276    0.02699442905276    0.00000000000000     0
    0.00674860726319    0.00674860726319    0.00000000000000     0
    0.01349721452638    0.01349721452638    0.00000000000000     0
    0.02024582178957    0.02024582178957    0.00000000000000     0
    0.02699442905276    0.02699442905276    0.00000000000000     0
    0.00674860726319    0.00674860726319    0.00000000000000     0
    0.01349721452638    0.01349721452638    0.00000000000000     0
    0.02024582178957    0.02024582178957    0.00000000000000     0
    0.02699442905276    0.02699442905276    0.00000000000000     0
    0.00674860726319    0.00674860726319    0.00000000000000     0
    0.01349721452638    0.01349721452638    0.00000000000000     0
    0.02024582178957    0.02024582178957    0.00000000000000     0
    0.02699442905276    0.02699442905276    0.00000000000000     0
    0.00674860726319    0.00674860726319    0.00000000000000     0
    0.01349721452638    0.01349721452638    0.00000000000000     0
    0.02024582178957    0.02024582178957    0.00000000000000     0
    0.02699442905276    0.02699442905276    0.00000000000000     0
    0.00674860726319    0.00674860726319    0.00000000000000     0
    0.01349721452638    0.01349721452638    0.00000000000000     0
    0.02024582178957    0.02024582178957    0.00000000000000     0
    0.02699442905276    0.02699442905276    0.00000000000000     0
    0.00674860726319    0.00674860726319    0.00000000000000     0
    0.01349721452638    0.01349721452638    0.00000000000000     0
    0.02024582178957    0.02024582178957    0.00000000000000     0
    0.02699442905276    0.02699442905276    0.00000000000000     0
    0.00674860726319    0.00674860726319    0.00000000000000     0
    0.01349721452638    0.01349721452638    0.00000000000000     0
    0.02024582178957    0.02024582178957    0.00000000000000     0
    0.02699442905276    0.02699442905276    0.00000000000000     0
    0.00674860726319    0.00674860726319    0.00000000000000     0
    0.01349721452638    0.01349721452638    0.00000000000000     0
    0.02024582178957    0.02024582178957    0.00000000000000     0
    0.02699442905276    0.02699442905276    0.00000000000000     0
    0.00674860726319    0.00674860726319    0.00000000000000     0
    0.01349721452638    0.01349721452638    0.00000000000000     0
    0.02024582178957    0.02024582178957    0.00000000000000     0
    0.02699442905276    0.02699442905276    0.00000000000000     0
    0.00674860726319    0.00674860726319    0.00000000000000     0
    0.01349721452638    0.01349721452638    0.00000000000000     0
    0.02024582178957    0.02024582178957    0.00000000000000     0
    0.02699442905276    0.02699442905276    0.00000000000000     0
    0.00674860726319    0.00674860726319    0.00000000000000     0
    0.01349721452638    0.01349721452638    0.00000000000000     0
    0.02024582178957    0.02024582178957    0.00000000000000     0
    0.02699442905276    0.02699442905276    0.00000000000000     0
    0.00674860726319    0.00674860726319    0.00000000000000     0
    0.01349721452638    0.01349721452638    0.00000000000000     0
    0.02024582178957    0.02024582178957    0.00000000000000     0
    0.02699442905276    0.02699442905276    0.00000000000000     0
    0.00674860726319    0.00674860726319    0.00000000000000     0
    0.01349721452638    0.01349721452638    0.00000000000000     0
    0.02024582178957    0.02024582178957    0.00000000000000     0
    0.02699442905276    0.02699442905276    0.00000000000000     0
    0.00674860726319    0.00674860726319    0.00000000000000     0
    0.01349721452638    0.01349721452638    0.00000000000000     0
    0.02024582178957    0.02024582178957    0.00000000000000     0
    0.02699442905276    0.02699442905276    0.00000000000000     0
    0.00674860726319    0.00674860726319    0.00000000000000     0
    0.01349721452638    0.01349721452638    0.00000000000000     0
    0.02024582178957    0.02024582178957    0.00000000000000     0
    0.02699442905276    0.02699442905276    0.00000000000000     0
    0.00674860726319    0.00674860726319    0.00000000000000     0
    0.01349721452638    0.01349721452638    0.00000000000000     0
    0.02024582178957    0.02024582178957    0.00000000000000     0
    0.02699442905276    0.02699442905276    0.00000000000000     0
    0.00663369940005    0.00787375273059    0.00124005333054     0
    0.01326739880009    0.01574750546118    0.00248010666109     0
    0.01990109820014    0.02362125819177    0.00372015999163     0
    0.02653479760019    0.03149501092237    0.00496021332218     0
    0.00684903240111    0.00785491353412    0.00143654713513     0
    0.01369806480221    0.01570982706823    0.00287309427026     0
    0.02054709720332    0.02356474060235    0.00430964140538     0
    0.02739612960442    0.03141965413646    0.00574618854051     0
    0.00705782261789    0.00779896836414    0.00158939218194     0
    0.01411564523578    0.01559793672828    0.00317878436388     0
    0.02117346785367    0.02339690509242    0.00476817654581     0
    0.02823129047157    0.03119587345656    0.00635756872775     0
    0.00725372606532    0.00770761708635    0.00169394435157     0
    0.01450745213064    0.01541523417269    0.00338788870314     0
    0.02176117819596    0.02312285125904    0.00508183305471     0
    0.02901490426128    0.03083046834538    0.00677577740629     0
    0.00743079031627    0.00758363536308    0.00174702687926     0
    0.01486158063254    0.01516727072616    0.00349405375852     0
    0.02229237094881    0.02275090608925    0.00524108063778     0
    0.02972316126509    0.03033454145233    0.00698810751704     0
    0.00758363536308    0.00743079031627    0.00174702687926     0
    0.01516727072616    0.01486158063254    0.00349405375852     0
    0.02275090608925    0.02229237094881    0.00524108063778     0
    0.03033454145233    0.02972316126509    0.00698810751704     0
    0.00770761708635    0.00725372606532    0.00169394435157     0
    0.01541523417269    0.01450745213064    0.00338788870314     0
    0.02312285125904    0.02176117819596    0.00508183305471     0
    0.03083046834538    0.02901490426128    0.00677577740629     0
    0.00779896836414    0.00705782261789    0.00158939218194     0
    0.01559793672828    0.01411564523578    0.00317878436388     0
    0.02339690509242    0.02117346785367    0.00476817654581     0
    0.03119587345656    0.02823129047157    0.00635756872775     0
    0.00785491353412    0.00684903240111    0.00143654713513     0
    0.01570982706823    0.01369806480221    0.00287309427026     0
    0.02356474060235    0.02054709720332    0.00430964140538     0
    0.03141965413646    0.02739612960442    0.00574618854051     0
    0.00787375273059    0.00663369940005    0.00124005333054     0
    0.01574750546118    0.01326739880009    0.00248010666109     0
    0.02362125819177    0.01990109820014    0.00372015999163     0
    0.03149501092237    0.02653479760019    0.00496021332218     0
    0.00785491353412    0.00641836639899    0.00100588113301     0
    0.01570982706823    0.01283673279798    0.00201176226602     0
    0.02356474060235    0.01925509919696    0.00301764339903     0
    0.03141965413646    0.02567346559595    0.00402352453204     0
    0.00779896836414    0.00620957618220    0.00074114574625     0
    0.01559793672828    0.01241915236441    0.00148229149250     0
    0.02339690509242    0.01862872854661    0.00222343723875     0
    0.03119587345656    0.02483830472881    0.00296458298500     0
    0.00770761708635    0.00601367273477    0.00045389102103     0
    0.01541523417269    0.01202734546955    0.00090778204205     0
    0.02312285125904    0.01804101820432    0.00136167306308     0
    0.03083046834538    0.02405469093910    0.00181556408411     0
    0.00758363536308    0.00583660848382    0.00015284504681     0
    0.01516727072616    0.01167321696764    0.00030569009362     0
    0.02275090608925    0.01750982545147    0.00045853514043     0
    0.03033454145233    0.02334643393529    0.00061138018724     0
    0.00743079031627    0.00568376343701   -0.00015284504681     0
    0.01486158063254    0.01136752687402   -0.00030569009362     0
    0.02229237094881    0.01705129031104   -0.00045853514043     0
    0.02972316126509    0.02273505374805   -0.00061138018724     0
    0.00725372606532    0.00555978171375   -0.00045389102103     0
    0.01450745213064    0.01111956342750   -0.00090778204205     0
    0.02176117819596    0.01667934514124   -0.00136167306308     0
    0.02901490426128    0.02223912685499   -0.00181556408411     0
    0.00705782261789    0.00546843043595   -0.00074114574625     0
    0.01411564523578    0.01093686087191   -0.00148229149250     0
    0.02117346785367    0.01640529130786   -0.00222343723875     0
    0.02823129047157    0.02187372174381   -0.00296458298500     0
    0.00684903240111    0.00541248526598   -0.00100588113301     0
    0.01369806480221    0.01082497053196   -0.00201176226602     0
    0.02054709720332    0.01623745579793   -0.00301764339903     0
    0.02739612960442    0.02164994106391   -0.00402352453204     0
    0.00663369940005    0.00539364606950   -0.00124005333054     0
    0.01326739880009    0.01078729213900   -0.00248010666109     0
    0.01990109820014    0.01618093820851   -0.00372015999163     0
    0.02653479760019    0.02157458427801   -0.00496021332218     0
    0.00641836639899    0.00541248526598   -0.00143654713513     0
    0.01283673279798    0.01082497053196   -0.00287309427026     0
    0.01925509919696    0.01623745579793   -0.00430964140538     0
    0.02567346559595    0.02164994106391   -0.00574618854051     0
    0.00620957618220    0.00546843043595   -0.00158939218194     0
    0.01241915236441    0.01093686087191   -0.00317878436388     0
    0.01862872854661    0.01640529130786   -0.00476817654581     0
    0.02483830472881    0.02187372174381   -0.00635756872775     0
    0.00601367273477    0.00555978171375   -0.00169394435157     0
    0.01202734546955    0.01111956342750   -0.00338788870314     0
    0.01804101820432    0.01667934514124   -0.00508183305471     0
    0.02405469093910    0.02223912685499   -0.00677577740629     0
    0.00583660848382    0.00568376343701   -0.00174702687926     0
    0.01167321696764    0.01136752687402   -0.00349405375852     0
    0.01750982545147    0.01705129031104   -0.00524108063778     0
    0.02334643393529    0.02273505374805   -0.00698810751704     0
    0.00568376343701    0.00583660848382   -0.00174702687926     0
    0.01136752687402    0.01167321696764   -0.00349405375852     0
    0.01705129031104    0.01750982545147   -0.00524108063778     0
    0.02273505374805    0.02334643393529   -0.00698810751704     0
    0.00555978171375    0.00601367273477   -0.00169394435157     0
    0.01111956342750    0.01202734546955   -0.00338788870314     0
    0.01667934514124    0.01804101820432   -0.00508183305471     0
    0.02223912685499    0.02405469093910   -0.00677577740629     0
    0.00546843043595    0.00620957618220   -0.00158939218194     0
    0.01093686087191    0.01241915236441   -0.00317878436388     0
    0.01640529130786    0.01862872854661   -0.00476817654581     0
    0.02187372174381    0.02483830472881   -0.00635756872775     0
    0.00541248526598    0.00641836639899   -0.00143654713513     0
    0.01082497053196    0.01283673279798   -0.00287309427026     0
    0.01623745579793    0.01925509919696   -0.00430964140538     0
    0.02164994106391    0.02567346559595   -0.00574618854051     0
    0.00539364606950    0.00663369940005   -0.00124005333054     0
    0.01078729213900    0.01326739880009   -0.00248010666109     0
    0.01618093820851    0.01990109820014   -0.00372015999163     0
    0.02157458427801    0.02653479760019   -0.00496021332218     0
    0.00541248526598    0.00684903240111   -0.00100588113301     0
    0.01082497053196    0.01369806480221   -0.00201176226602     0
    0.01623745579793    0.02054709720332   -0.00301764339903     0
    0.02164994106391    0.02739612960442   -0.00402352453204     0
    0.00546843043595    0.00705782261789   -0.00074114574625     0
    0.01093686087191    0.01411564523578   -0.00148229149250     0
    0.01640529130786    0.02117346785367   -0.00222343723875     0
    0.02187372174381    0.02823129047157   -0.00296458298500     0
    0.00555978171375    0.00725372606532   -0.00045389102103     0
    0.01111956342750    0.01450745213064   -0.00090778204205     0
    0.01667934514124    0.02176117819596   -0.00136167306308     0
    0.02223912685499    0.02901490426128   -0.00181556408411     0
    0.00568376343701    0.00743079031627   -0.00015284504681     0
    0.01136752687402    0.01486158063254   -0.00030569009362     0
    0.01705129031104    0.02229237094881   -0.00045853514043     0
    0.02273505374805    0.02972316126509   -0.00061138018724     0
    0.00583660848382    0.00758363536308    0.00015284504681     0
    0.01167321696764    0.01516727072616    0.00030569009362     0
    0.01750982545147    0.02275090608925    0.00045853514043     0
    0.02334643393529    0.03033454145233    0.00061138018724     0
    0.00601367273477    0.00770761708635    0.00045389102103     0
    0.01202734546955    0.01541523417269    0.00090778204205     0
    0.01804101820432    0.02312285125904    0.00136167306308     0
    0.02405469093910    0.03083046834538    0.00181556408411     0
    0.00620957618220    0.00779896836414    0.00074114574625     0
    0.01241915236441    0.01559793672828    0.00148229149250     0
    0.01862872854661    0.02339690509242    0.00222343723875     0
    0.02483830472881    0.03119587345656    0.00296458298500     0
    0.00641836639899    0.00785491353412    0.00100588113301     0
    0.01283673279798    0.01570982706823    0.00201176226602     0
    0.01925509919696    0.02356474060235    0.00301764339903     0
    0.02567346559595    0.03141965413646    0.00402352453204     0
    0.00629288886008    0.00873076699228    0.00243787813220     0
    0.01258577772016    0.01746153398456    0.00487575626439     0
    0.01887866658024    0.02619230097684    0.00731363439659     0
    0.02517155544032    0.03492306796911    0.00975151252879     0
    0.00671622195511    0.00869373014557    0.00282417438052     0
    0.01343244391022    0.01738746029114    0.00564834876103     0
    0.02014866586533    0.02608119043670    0.00847252314155     0
    0.02686488782044    0.03477492058227    0.01129669752207     0
    0.00712669228827    0.00858374495128    0.00312465951939     0
    0.01425338457653    0.01716748990256    0.00624931903877     0
    0.02138007686480    0.02575123485385    0.00937397855816     0
    0.02850676915306    0.03433497980513    0.01249863807754     0
    0.00751182792618    0.00840415325389    0.00333020345991     0
    0.01502365585236    0.01680830650779    0.00666040691982     0
    0.02253548377854    0.02521245976168    0.00999061037974     0
    0.03004731170472    0.03361661301558    0.01332081383965     0
    0.00785992671738    0.00816041185625    0.00343456085347     0
    0.01571985343477    0.01632082371250    0.00686912170695     0
    0.02357978015215    0.02448123556876    0.01030368256042     0
    0.03143970686953    0.03264164742501    0.01373824341389     0
    0.00816041185625    0.00785992671738    0.00343456085347     0
    0.01632082371250    0.01571985343477    0.00686912170695     0
    0.02448123556876    0.02357978015215    0.01030368256042     0
    0.03264164742501    0.03143970686953    0.01373824341389     0
    0.00840415325389    0.00751182792618    0.00333020345991     0
    0.01680830650779    0.01502365585236    0.00666040691982     0
    0.02521245976168    0.02253548377854    0.00999061037974     0
    0.03361661301558    0.03004731170472    0.01332081383965     0
    0.00858374495128    0.00712669228827    0.00312465951939     0
    0.01716748990256    0.01425338457653    0.00624931903877     0
    0.02575123485385    0.02138007686480    0.00937397855816     0
    0.03433497980513    0.02850676915306    0.01249863807754     0
    0.00869373014557    0.00671622195511    0.00282417438052     0
    0.01738746029114    0.01343244391022    0.00564834876103     0
    0.02608119043670    0.02014866586533    0.00847252314155     0
    0.03477492058227    0.02686488782044    0.01129669752207     0
    0.00873076699228    0.00629288886008    0.00243787813220     0
    0.01746153398456    0.01258577772016    0.00487575626439     0
    0.02619230097684    0.01887866658024    0.00731363439659     0
    0.03492306796911    0.02517155544032    0.00975151252879     0
    0.00869373014557    0.00586955576505    0.00197750819046     0
    0.01738746029114    0.01173911153010    0.00395501638091     0
    0.02608119043670    0.01760866729515    0.00593252457137     0
    0.03477492058227    0.02347822306020    0.00791003276183     0
    0.00858374495128    0.00545908543190    0.00145705266302     0
    0.01716748990256    0.01091817086379    0.00291410532603     0
    0.02575123485385    0.01637725629569    0.00437115798905     0
    0.03433497980513    0.02183634172759    0.00582821065207     0
    0.00840415325389    0.00507394979398    0.00089232532771     0
    0.01680830650779    0.01014789958796    0.00178465065543     0
    0.02521245976168    0.01522184938195    0.00267697598314     0
    0.03361661301558    0.02029579917593    0.00356930131086     0
    0.00816041185625    0.00472585100278    0.00030048513887     0
    0.01632082371250    0.00945170200556    0.00060097027774     0
    0.02448123556876    0.01417755300834    0.00090145541661     0
    0.03264164742501    0.01890340401112    0.00120194055548     0
    0.00785992671738    0.00442536586391   -0.00030048513887     0
    0.01571985343477    0.00885073172782   -0.00060097027774     0
    0.02357978015215    0.01327609759173   -0.00090145541661     0
    0.03143970686953    0.01770146345564   -0.00120194055548     0
    0.00751182792618    0.00418162446627   -0.00089232532771     0
    0.01502365585236    0.00836324893254   -0.00178465065543     0
    0.02253548377854    0.01254487339880   -0.00267697598314     0
    0.03004731170472    0.01672649786507   -0.00356930131086     0
    0.00712669228827    0.00400203276888   -0.00145705266302     0
    0.01425338457653    0.00800406553776   -0.00291410532603     0
    0.02138007686480    0.01200609830664   -0.00437115798905     0
    0.02850676915306    0.01600813107552   -0.00582821065207     0
    0.00671622195511    0.00389204757459   -0.00197750819046     0
    0.01343244391022    0.00778409514919   -0.00395501638091     0
    0.02014866586533    0.01167614272378   -0.00593252457137     0
    0.02686488782044    0.01556819029838   -0.00791003276183     0
    0.00629288886008    0.00385501072788   -0.00243787813220     0
    0.01258577772016    0.00771002145577   -0.00487575626439     0
    0.01887866658024    0.01156503218365   -0.00731363439659     0
    0.02517155544032    0.01542004291153   -0.00975151252879     0
    0.00586955576505    0.00389204757459   -0.00282417438052     0
    0.01173911153010    0.00778409514919   -0.00564834876103     0
    0.01760866729515    0.01167614272378   -0.00847252314155     0
    0.02347822306020    0.01556819029838   -0.01129669752207     0
    0.00545908543190    0.00400203276888   -0.00312465951939     0
    0.01091817086379    0.00800406553776   -0.00624931903877     0
    0.01637725629569    0.01200609830664   -0.00937397855816     0
    0.02183634172759    0.01600813107552   -0.01249863807754     0
    0.00507394979398    0.00418162446627   -0.00333020345991     0
    0.01014789958796    0.00836324893254   -0.00666040691982     0
    0.01522184938195    0.01254487339880   -0.00999061037974     0
    0.02029579917593    0.01672649786507   -0.01332081383965     0
    0.00472585100278    0.00442536586391   -0.00343456085347     0
    0.00945170200556    0.00885073172782   -0.00686912170695     0
    0.01417755300834    0.01327609759173   -0.01030368256042     0
    0.01890340401112    0.01770146345564   -0.01373824341389     0
    0.00442536586391    0.00472585100278   -0.00343456085347     0
    0.00885073172782    0.00945170200556   -0.00686912170695     0
    0.01327609759173    0.01417755300834   -0.01030368256042     0
    0.01770146345564    0.01890340401112   -0.01373824341389     0
    0.00418162446627    0.00507394979398   -0.00333020345991     0
    0.00836324893254    0.01014789958796   -0.00666040691982     0
    0.01254487339880    0.01522184938195   -0.00999061037974     0
    0.01672649786507    0.02029579917593   -0.01332081383965     0
    0.00400203276888    0.00545908543190   -0.00312465951939     0
    0.00800406553776    0.01091817086379   -0.00624931903877     0
    0.01200609830664    0.01637725629569   -0.00937397855816     0
    0.01600813107552    0.02183634172759   -0.01249863807754     0
    0.00389204757459    0.00586955576505   -0.00282417438052     0
    0.00778409514919    0.01173911153010   -0.00564834876103     0
    0.01167614272378    0.01760866729515   -0.00847252314155     0
    0.01556819029838    0.02347822306020   -0.01129669752207     0
    0.00385501072788    0.00629288886008   -0.00243787813220     0
    0.00771002145577    0.01258577772016   -0.00487575626439     0
    0.01156503218365    0.01887866658024   -0.00731363439659     0
    0.01542004291153    0.02517155544032   -0.00975151252879     0
    0.00389204757459    0.00671622195511   -0.00197750819046     0
    0.00778409514919    0.01343244391022   -0.00395501638091     0
    0.01167614272378    0.02014866586533   -0.00593252457137     0
    0.01556819029838    0.02686488782044   -0.00791003276183     0
    0.00400203276888    0.00712669228827   -0.00145705266302     0
    0.00800406553776    0.01425338457653   -0.00291410532603     0
    0.01200609830664    0.02138007686480   -0.00437115798905     0
    0.01600813107552    0.02850676915306   -0.00582821065207     0
    0.00418162446627    0.00751182792618   -0.00089232532771     0
    0.00836324893254    0.01502365585236   -0.00178465065543     0
    0.01254487339880    0.02253548377854   -0.00267697598314     0
    0.01672649786507    0.03004731170472   -0.00356930131086     0
    0.00442536586391    0.00785992671738   -0.00030048513887     0
    0.00885073172782    0.01571985343477   -0.00060097027774     0
    0.01327609759173    0.02357978015215   -0.00090145541661     0
    0.01770146345564    0.03143970686953   -0.00120194055548     0