ATOMIC_SPECIES
C     12.011000  ../../C_ONCV_PBE-1.0.upf

NUMERICAL_ORBITAL
../../C_gga_7au_100Ry_2s2p1d.orb


LATTICE_CONSTANT
1.88972600

LATTICE_VECTORS
 2.48116021   0.00000000   0.00000000
-1.24058011   2.14874778   0.00000000
 0.00000000   0.00000000   11.99999871

ATOMIC_POSITIONS
Direct

C
 0.00000000
2
 0.66666667   0.33333333   0.50000000  1  1  1  mag  0.00000000
 0.33333333   0.66666667   0.50000000  1  1  1  mag  0.00000000
