Global Parameters
  ISTART = 1
  LREAL = F
  PREC = Normal
  LWAVE = .TRUE.
  LCHARG = .TRUE.
  ADDGRID= .TRUE.
 
Electronic Relaxation
  ISMEAR = 0
  SIGMA = 0.05
  NELM = 60
  NELMIN = 6
  EDIFF = 1E-08
  LORBIT = 10
