System = Si 
PREC = Normal 
ENCUT = 250.0 
ALGO = BSE 
ISMEAR = 0  
SIGMA = 0.05 
NBANDS = 216
NOMEGA = 72 
LSPECTRAL= .TRUE.
LOPTICS= .TRUE.
OMEGAMAX= 10
NBANDSO = 16
NBANDSV = 16
NEDOS=3000
