System = Si 
PREC = Normal ; 
ENCUT = 250.0 
ALGO = GW0 
ISMEAR = 0 ; 
SIGMA = 0.05 
NELM = 1 ; 
NBANDS = 216
NOMEGA = 72 
LWAVE = .TRUE.
LSPECTRAL= .TRUE.
LOPTICS= .TRUE.
