Parameters to Generate KPOINTS (Don't Edit This Line):   0.040  0.040   24   99   3  42  36  21
   123
Reciprocal lattice
    0.00000000000000    0.00000000000000    0.00000000000000     1
    0.10000000000000    0.00000000000000    0.00000000000000     2
    0.20000000000000    0.00000000000000    0.00000000000000     2
    0.30000000000000    0.00000000000000    0.00000000000000     2
    0.40000000000000    0.00000000000000    0.00000000000000     2
    0.50000000000000    0.00000000000000    0.00000000000000     1
    0.00000000000000    0.16666666666667    0.00000000000000     2
    0.10000000000000    0.16666666666667    0.00000000000000     4
    0.20000000000000    0.16666666666667    0.00000000000000     4
    0.30000000000000    0.16666666666667    0.00000000000000     4
    0.40000000000000    0.16666666666667    0.00000000000000     4
    0.50000000000000    0.16666666666667    0.00000000000000     2
    0.00000000000000    0.33333333333333    0.00000000000000     2
    0.10000000000000    0.33333333333333    0.00000000000000     4
    0.20000000000000    0.33333333333333    0.00000000000000     4
    0.30000000000000    0.33333333333333    0.00000000000000     4
    0.40000000000000    0.33333333333333    0.00000000000000     4
    0.50000000000000    0.33333333333333    0.00000000000000     2
    0.00000000000000    0.50000000000000    0.00000000000000     1
    0.10000000000000    0.50000000000000    0.00000000000000     2
    0.20000000000000    0.50000000000000    0.00000000000000     2
    0.30000000000000    0.50000000000000    0.00000000000000     2
    0.40000000000000    0.50000000000000    0.00000000000000     2
    0.50000000000000    0.50000000000000    0.00000000000000     1
    0.33333333333000   -0.00000000001000    0.00000000000000     0
    0.32520325202927   -0.02439024391220    0.00000000000000     0
    0.31707317072854   -0.04878048781439    0.00000000000000     0
    0.30894308942780   -0.07317073171659    0.00000000000000     0
    0.30081300812707   -0.09756097561878    0.00000000000000     0
    0.29268292682634   -0.12195121952098    0.00000000000000     0
    0.28455284552561   -0.14634146342317    0.00000000000000     0
    0.27642276422488   -0.17073170732537    0.00000000000000     0
    0.26829268292415   -0.19512195122756    0.00000000000000     0
    0.26016260162341   -0.21951219512976    0.00000000000000     0
    0.25203252032268   -0.24390243903195    0.00000000000000     0
    0.24390243902195   -0.26829268293415    0.00000000000000     0
    0.23577235772122   -0.29268292683634    0.00000000000000     0
    0.22764227642049   -0.31707317073854    0.00000000000000     0
    0.21951219511976   -0.34146341464073    0.00000000000000     0
    0.21138211381902   -0.36585365854293    0.00000000000000     0
    0.20325203251829   -0.39024390244512    0.00000000000000     0
    0.19512195121756   -0.41463414634732    0.00000000000000     0
    0.18699186991683   -0.43902439024951    0.00000000000000     0
    0.17886178861610   -0.46341463415171    0.00000000000000     0
    0.17073170731537   -0.48780487805390    0.00000000000000     0
    0.16260162601463    0.48780487804390    0.00000000000000     0
    0.15447154471390    0.46341463414171    0.00000000000000     0
    0.14634146341317    0.43902439023951    0.00000000000000     0
    0.13821138211244    0.41463414633732    0.00000000000000     0
    0.13008130081171    0.39024390243512    0.00000000000000     0
    0.12195121951098    0.36585365853293    0.00000000000000     0
    0.11382113821024    0.34146341463073    0.00000000000000     0
    0.10569105690951    0.31707317072854    0.00000000000000     0
    0.09756097560878    0.29268292682634    0.00000000000000     0
    0.08943089430805    0.26829268292415    0.00000000000000     0
    0.08130081300732    0.24390243902195    0.00000000000000     0
    0.07317073170659    0.21951219511976    0.00000000000000     0
    0.06504065040585    0.19512195121756    0.00000000000000     0
    0.05691056910512    0.17073170731537    0.00000000000000     0
    0.04878048780439    0.14634146341317    0.00000000000000     0
    0.04065040650366    0.12195121951098    0.00000000000000     0
    0.03252032520293    0.09756097560878    0.00000000000000     0
    0.02439024390220    0.07317073170659    0.00000000000000     0
    0.01626016260146    0.04878048780439    0.00000000000000     0
    0.00813008130073    0.02439024390220    0.00000000000000     0
    0.00000000000000    0.00000000000000    0.00000000000000     0
    0.00000000000000    0.00000000000000    0.00000000000000     0
    0.00000000000000    0.02857142857143    0.00000000000000     0
    0.00000000000000    0.05714285714286    0.00000000000000     0
    0.00000000000000    0.08571428571429    0.00000000000000     0
    0.00000000000000    0.11428571428571    0.00000000000000     0
    0.00000000000000    0.14285714285714    0.00000000000000     0
    0.00000000000000    0.17142857142857    0.00000000000000     0
    0.00000000000000    0.20000000000000    0.00000000000000     0
    0.00000000000000    0.22857142857143    0.00000000000000     0
    0.00000000000000    0.25714285714286    0.00000000000000     0
    0.00000000000000    0.28571428571429    0.00000000000000     0
    0.00000000000000    0.31428571428571    0.00000000000000     0
    0.00000000000000    0.34285714285714    0.00000000000000     0
    0.00000000000000    0.37142857142857    0.00000000000000     0
    0.00000000000000    0.40000000000000    0.00000000000000     0
    0.00000000000000    0.42857142857143    0.00000000000000     0
    0.00000000000000    0.45714285714286    0.00000000000000     0
    0.00000000000000    0.48571428571429    0.00000000000000     0
    0.00000000000000   -0.48571428571429    0.00000000000000     0
    0.00000000000000   -0.45714285714286    0.00000000000000     0
    0.00000000000000   -0.42857142857143    0.00000000000000     0
    0.00000000000000   -0.40000000000000    0.00000000000000     0
    0.00000000000000   -0.37142857142857    0.00000000000000     0
    0.00000000000000   -0.34285714285714    0.00000000000000     0
    0.00000000000000   -0.31428571428571    0.00000000000000     0
    0.00000000000000   -0.28571428571429    0.00000000000000     0
    0.00000000000000   -0.25714285714286    0.00000000000000     0
    0.00000000000000   -0.22857142857143    0.00000000000000     0
    0.00000000000000   -0.20000000000000    0.00000000000000     0
    0.00000000000000   -0.17142857142857    0.00000000000000     0
    0.00000000000000   -0.14285714285714    0.00000000000000     0
    0.00000000000000   -0.11428571428571    0.00000000000000     0
    0.00000000000000   -0.08571428571429    0.00000000000000     0
    0.00000000000000   -0.05714285714286    0.00000000000000     0
    0.00000000000000   -0.02857142857143    0.00000000000000     0
    0.00000000000000    0.00000000000000    0.00000000000000     0
    0.00000000000000    0.00000000000000    0.00000000000000     0
    0.01666666666650   -0.00000000000050    0.00000000000000     0
    0.03333333333300   -0.00000000000100    0.00000000000000     0
    0.04999999999950   -0.00000000000150    0.00000000000000     0
    0.06666666666600   -0.00000000000200    0.00000000000000     0
    0.08333333333250   -0.00000000000250    0.00000000000000     0
    0.09999999999900   -0.00000000000300    0.00000000000000     0
    0.11666666666550   -0.00000000000350    0.00000000000000     0
    0.13333333333200   -0.00000000000400    0.00000000000000     0
    0.14999999999850   -0.00000000000450    0.00000000000000     0
    0.16666666666500   -0.00000000000500    0.00000000000000     0
    0.18333333333150   -0.00000000000550    0.00000000000000     0
    0.19999999999800   -0.00000000000600    0.00000000000000     0
    0.21666666666450   -0.00000000000650    0.00000000000000     0
    0.23333333333100   -0.00000000000700    0.00000000000000     0
    0.24999999999750   -0.00000000000750    0.00000000000000     0
    0.26666666666400   -0.00000000000800    0.00000000000000     0
    0.28333333333050   -0.00000000000850    0.00000000000000     0
    0.29999999999700   -0.00000000000900    0.00000000000000     0
    0.31666666666350   -0.00000000000950    0.00000000000000     0
    0.33333333333000   -0.00000000001000    0.00000000000000     0
