SUPERCELL file generated by VASPKIT
 1.000000
    1.2344083195740001   -2.1380573715510001    0.0000000000000000
    3.7032249587220001    2.1380573715510001    0.0000000000000000
    0.0000000000000000    0.0000000000000000   12.0000000000000000
   C 
    4
Direct
    0.0000000000000000    0.0000000000000000    0.5000000000000000      C1
    0.5000000000000000    0.5000000000000000    0.5000000000000000      C2
    0.9999994999867532    0.3333335000049580    0.5000000000000000      C3
    0.4999994999867532    0.8333335000049580    0.5000000000000000      C4
