ATOMIC_SPECIES
C     12.011000  ../../C_ONCV_PBE-1.0.upf

NUMERICAL_ORBITAL
../../C_gga_7au_100Ry_2s2p1d.orb


LATTICE_CONSTANT
1.88972600

LATTICE_VECTORS
 3.56251545  -0.00890629  -0.00890629
-0.00890629   3.56251545  -0.00890629
-0.00890629  -0.00890629   3.56251545

ATOMIC_POSITIONS
Direct

C
 0.00000000
8
 0.25000000   0.25000000   0.25000000  1  1  1  mag  0.00000000
 0.00000000   0.00000000   0.00000000  1  1  1  mag  0.00000000
 0.25000000   0.75000000   0.75000000  1  1  1  mag  0.00000000
 0.00000000   0.50000000   0.50000000  1  1  1  mag  0.00000000
 0.75000000   0.25000000   0.75000000  1  1  1  mag  0.00000000
 0.50000000   0.00000000   0.50000000  1  1  1  mag  0.00000000
 0.75000000   0.75000000   0.25000000  1  1  1  mag  0.00000000
 0.50000000   0.50000000   0.00000000  1  1  1  mag  0.00000000
