ATOMIC_SPECIES
C 12.011 ../../C_ONCV_PBE-1.0.upf upf201

NUMERICAL_ORBITAL
../../C_gga_7au_100Ry_2s2p1d.orb

LATTICE_CONSTANT
1.889726

LATTICE_VECTORS
3.56251545 0.01781258 0.01781258 #latvec1
0.01781258 3.56251545 0.01781258 #latvec2
0.01781258 0.01781258 3.56251545 #latvec3

ATOMIC_POSITIONS
Direct

C #label
0 #magnetism
8 #number of atoms
0.24993270513  0.24993270513  0.249933052859  m  1  1  1
9.68557231406e-06  9.68557231406e-06  0.00024680064534  m  1  1  1
0.249999267838  0.749961524874  0.749808093045  m  1  1  1
0.999970843195  0.500002740911  0.500295663966  m  1  1  1
0.749961524874  0.249999267838  0.749808093045  m  1  1  1
0.500002740911  0.999970843195  0.500295663966  m  1  1  1
0.749990314428  0.749990314428  0.249753199355  m  1  1  1
0.499967062278  0.499967062278  0.000318508522168  m  1  1  1
