Global Parameters
ISTART = 1
ISPIN = 1
LREAL = .FALSE.
LWAVE = F
LCHARG = F
ADDGRID= .TRUE.
PREC = M
 
Electronic Relaxation
ISMEAR = 0
SIGMA = 0.05
NELM = 90
NELMIN = 6
EDIFF = 1E-07
 
Ionic Relaxation
#NSW = 100
#IBRION = 2
#ISIF = 2
#ALGO= very
#EDIFFG = -2E-02
IVDW = 10 
