K-Spacing Value to Generate K-Mesh: 0.040
0
Gamma
  12  12  1
0.0  0.0  0.0
