Parameters to Generate KPOINTS (Don't Edit This Line):     0.0300    30     3     6
    48
Reciprocal lattice
    0.00000000000000    0.00000000000000    0.00000000000000     1
    0.06250000000000    0.00000000000000    0.00000000000000     6
    0.12500000000000    0.00000000000000    0.00000000000000     6
    0.18750000000000    0.00000000000000    0.00000000000000     6
    0.25000000000000    0.00000000000000    0.00000000000000     6
    0.31250000000000    0.00000000000000    0.00000000000000     6
    0.37500000000000    0.00000000000000    0.00000000000000     6
    0.43750000000000    0.00000000000000    0.00000000000000     6
    0.50000000000000    0.00000000000000    0.00000000000000     3
    0.06250000000000    0.06250000000000    0.00000000000000     6
    0.12500000000000    0.06250000000000    0.00000000000000    12
    0.18750000000000    0.06250000000000    0.00000000000000    12
    0.25000000000000    0.06250000000000    0.00000000000000    12
    0.31250000000000    0.06250000000000    0.00000000000000    12
    0.37500000000000    0.06250000000000    0.00000000000000    12
    0.43750000000000    0.06250000000000    0.00000000000000    12
    0.12500000000000    0.12500000000000    0.00000000000000     6
    0.18750000000000    0.12500000000000    0.00000000000000    12
    0.25000000000000    0.12500000000000    0.00000000000000    12
    0.31250000000000    0.12500000000000    0.00000000000000    12
    0.37500000000000    0.12500000000000    0.00000000000000    12
    0.43750000000000    0.12500000000000    0.00000000000000     6
    0.18750000000000    0.18750000000000    0.00000000000000     6
    0.25000000000000    0.18750000000000    0.00000000000000    12
    0.31250000000000    0.18750000000000    0.00000000000000    12
    0.37500000000000    0.18750000000000    0.00000000000000    12
    0.25000000000000    0.25000000000000    0.00000000000000     6
    0.31250000000000    0.25000000000000    0.00000000000000    12
    0.37500000000000    0.25000000000000    0.00000000000000     6
    0.31250000000000    0.31250000000000    0.00000000000000     6
    0.33333300000000    0.33333330000000    0.00000000000000     0
    0.33485844628482    0.32764026327468    0.00000000000000     0
    0.33638389256964    0.32194722654935    0.00000000000000     0
    0.33790933885446    0.31625418982403    0.00000000000000     0
    0.33943478513928    0.31056115309870    0.00000000000000     0
    0.34096023142410    0.30486811637338    0.00000000000000     0
    0.33333300000000    0.33333330000000    0.00000000000000     0
    0.33180756140077    0.33902633466597    0.00000000000000     0
    0.33028212280155    0.34471936933195    0.00000000000000     0
    0.32875668420232    0.35041240399792    0.00000000000000     0
    0.32723124560310    0.35610543866390    0.00000000000000     0
    0.32570580700387    0.36179847332987    0.00000000000000     0
    0.00000000000000    0.00000000000000    0.00000000000000     0
   -0.00152544628482    0.00569303672532    0.00000000000000     0
   -0.00305089256964    0.01138607345065    0.00000000000000     0
   -0.00457633885446    0.01707911017597    0.00000000000000     0
   -0.00610178513928    0.02277214690130    0.00000000000000     0
   -0.00762723142410    0.02846518362662    0.00000000000000     0
