Parameters to Generate KPOINTS (Don't Edit This Line):     0.0300    20    36     5
   200
Reciprocal lattice
    0.00000000000000    0.00000000000000    0.00000000000000     2
    0.14285714285714    0.00000000000000    0.00000000000000     4
    0.28571428571429    0.00000000000000    0.00000000000000     4
    0.42857142857143    0.00000000000000    0.00000000000000     4
    0.00000000000000    0.10000000000000    0.00000000000000     2
    0.14285714285714    0.10000000000000    0.00000000000000     4
    0.28571428571429    0.10000000000000    0.00000000000000     4
    0.42857142857143    0.10000000000000    0.00000000000000     4
    0.00000000000000    0.20000000000000    0.00000000000000     2
    0.14285714285714    0.20000000000000    0.00000000000000     4
    0.28571428571429    0.20000000000000    0.00000000000000     4
    0.42857142857143    0.20000000000000    0.00000000000000     4
    0.00000000000000    0.30000000000000    0.00000000000000     2
    0.14285714285714    0.30000000000000    0.00000000000000     4
    0.28571428571429    0.30000000000000    0.00000000000000     4
    0.42857142857143    0.30000000000000    0.00000000000000     4
    0.00000000000000    0.40000000000000    0.00000000000000     2
    0.14285714285714    0.40000000000000    0.00000000000000     4
    0.28571428571429    0.40000000000000    0.00000000000000     4
    0.42857142857143    0.40000000000000    0.00000000000000     4
    0.00000000000000    0.00000000000000    0.00000000000000     0
    0.01190013005508    0.00000000000000    0.00000000000000     0
    0.02380026011016    0.00000000000000    0.00000000000000     0
    0.03570039016524    0.00000000000000    0.00000000000000     0
    0.04760052022032    0.00000000000000    0.00000000000000     0
    0.00000000000000    0.00000000000000    0.00000000000000     0
    0.01171934034010    0.00141007120191    0.00000000000000     0
    0.02343868068019    0.00282014240382    0.00000000000000     0
    0.03515802102029    0.00423021360573    0.00000000000000     0
    0.04687736136038    0.00564028480764    0.00000000000000     0
    0.00000000000000    0.00000000000000    0.00000000000000     0
    0.01118246439915    0.00277729810388    0.00000000000000     0
    0.02236492879830    0.00555459620776    0.00000000000000     0
    0.03354739319745    0.00833189431164    0.00000000000000     0
    0.04472985759660    0.01110919241552    0.00000000000000     0
    0.00000000000000    0.00000000000000    0.00000000000000     0
    0.01030581493604    0.00406013820834    0.00000000000000     0
    0.02061162987207    0.00812027641669    0.00000000000000     0
    0.03091744480811    0.01218041462503    0.00000000000000     0
    0.04122325974415    0.01624055283337    0.00000000000000     0
    0.00000000000000    0.00000000000000    0.00000000000000     0
    0.00911602850109    0.00521961306788    0.00000000000000     0
    0.01823205700217    0.01043922613575    0.00000000000000     0
    0.02734808550326    0.01565883920363    0.00000000000000     0
    0.03646411400435    0.02087845227150    0.00000000000000     0
    0.00000000000000    0.00000000000000    0.00000000000000     0
    0.00764925615306    0.00622049262559    0.00000000000000     0
    0.01529851230613    0.01244098525118    0.00000000000000     0
    0.02294776845919    0.01866147787678    0.00000000000000     0
    0.03059702461225    0.02488197050237    0.00000000000000     0
    0.00000000000000    0.00000000000000    0.00000000000000     0
    0.00595006502754    0.00703236566260    0.00000000000000     0
    0.01190013005508    0.01406473132520    0.00000000000000     0
    0.01785019508262    0.02109709698780    0.00000000000000     0
    0.02380026011016    0.02812946265041    0.00000000000000     0
    0.00000000000000    0.00000000000000    0.00000000000000     0
    0.00407008418703    0.00763056382750    0.00000000000000     0
    0.00814016837406    0.01526112765500    0.00000000000000     0
    0.01221025256110    0.02289169148250    0.00000000000000     0
    0.01628033674813    0.03052225531000    0.00000000000000     0
    0.00000000000000    0.00000000000000    0.00000000000000     0
    0.00206643589806    0.00799691117175    0.00000000000000     0
    0.00413287179613    0.01599382234351    0.00000000000000     0
    0.00619930769419    0.02399073351526    0.00000000000000     0
    0.00826574359226    0.03198764468702    0.00000000000000     0
    0.00000000000000    0.00000000000000    0.00000000000000     0
    0.00000000000000    0.00812027641669    0.00000000000000     0
    0.00000000000000    0.01624055283337    0.00000000000000     0
    0.00000000000000    0.02436082925006    0.00000000000000     0
    0.00000000000000    0.03248110566674    0.00000000000000     0
    0.00000000000000    0.00000000000000    0.00000000000000     0
   -0.00206643589806    0.00799691117175    0.00000000000000     0
   -0.00413287179613    0.01599382234351    0.00000000000000     0
   -0.00619930769419    0.02399073351526    0.00000000000000     0
   -0.00826574359226    0.03198764468702    0.00000000000000     0
    0.00000000000000    0.00000000000000    0.00000000000000     0
   -0.00407008418703    0.00763056382750    0.00000000000000     0
   -0.00814016837406    0.01526112765500    0.00000000000000     0
   -0.01221025256110    0.02289169148250    0.00000000000000     0
   -0.01628033674813    0.03052225531000    0.00000000000000     0
    0.00000000000000    0.00000000000000    0.00000000000000     0
   -0.00595006502754    0.00703236566260    0.00000000000000     0
   -0.01190013005508    0.01406473132520    0.00000000000000     0
   -0.01785019508262    0.02109709698780    0.00000000000000     0
   -0.02380026011016    0.02812946265041    0.00000000000000     0
    0.00000000000000    0.00000000000000    0.00000000000000     0
   -0.00764925615306    0.00622049262559    0.00000000000000     0
   -0.01529851230613    0.01244098525118    0.00000000000000     0
   -0.02294776845919    0.01866147787678    0.00000000000000     0
   -0.03059702461225    0.02488197050237    0.00000000000000     0
    0.00000000000000    0.00000000000000    0.00000000000000     0
   -0.00911602850109    0.00521961306788    0.00000000000000     0
   -0.01823205700217    0.01043922613575    0.00000000000000     0
   -0.02734808550326    0.01565883920363    0.00000000000000     0
   -0.03646411400435    0.02087845227150    0.00000000000000     0
    0.00000000000000    0.00000000000000    0.00000000000000     0
   -0.01030581493604    0.00406013820834    0.00000000000000     0
   -0.02061162987207    0.00812027641669    0.00000000000000     0
   -0.03091744480811    0.01218041462503    0.00000000000000     0
   -0.04122325974415    0.01624055283337    0.00000000000000     0
    0.00000000000000    0.00000000000000    0.00000000000000     0
   -0.01118246439915    0.00277729810388    0.00000000000000     0
   -0.02236492879830    0.00555459620776    0.00000000000000     0
   -0.03354739319745    0.00833189431164    0.00000000000000     0
   -0.04472985759660    0.01110919241552    0.00000000000000     0
    0.00000000000000    0.00000000000000    0.00000000000000     0
   -0.01171934034010    0.00141007120191    0.00000000000000     0
   -0.02343868068019    0.00282014240382    0.00000000000000     0
   -0.03515802102029    0.00423021360573    0.00000000000000     0
   -0.04687736136038    0.00564028480764    0.00000000000000     0
    0.00000000000000    0.00000000000000    0.00000000000000     0
   -0.01190013005508    0.00000000000000    0.00000000000000     0
   -0.02380026011016    0.00000000000000    0.00000000000000     0
   -0.03570039016524    0.00000000000000    0.00000000000000     0
   -0.04760052022032    0.00000000000000    0.00000000000000     0
    0.00000000000000    0.00000000000000    0.00000000000000     0
   -0.01171934034010   -0.00141007120191    0.00000000000000     0
   -0.02343868068019   -0.00282014240382    0.00000000000000     0
   -0.03515802102029   -0.00423021360573    0.00000000000000     0
   -0.04687736136038   -0.00564028480764    0.00000000000000     0
    0.00000000000000    0.00000000000000    0.00000000000000     0
   -0.01118246439915   -0.00277729810388    0.00000000000000     0
   -0.02236492879830   -0.00555459620776    0.00000000000000     0
   -0.03354739319745   -0.00833189431164    0.00000000000000     0
   -0.04472985759660   -0.01110919241552    0.00000000000000     0
    0.00000000000000    0.00000000000000    0.00000000000000     0
   -0.01030581493604   -0.00406013820834    0.00000000000000     0
   -0.02061162987207   -0.00812027641669    0.00000000000000     0
   -0.03091744480811   -0.01218041462503    0.00000000000000     0
   -0.04122325974415   -0.01624055283337    0.00000000000000     0
    0.00000000000000    0.00000000000000    0.00000000000000     0
   -0.00911602850109   -0.00521961306788    0.00000000000000     0
   -0.01823205700217   -0.01043922613575    0.00000000000000     0
   -0.02734808550326   -0.01565883920363    0.00000000000000     0
   -0.03646411400435   -0.02087845227150    0.00000000000000     0
    0.00000000000000    0.00000000000000    0.00000000000000     0
   -0.00764925615306   -0.00622049262559    0.00000000000000     0
   -0.01529851230613   -0.01244098525118    0.00000000000000     0
   -0.02294776845919   -0.01866147787678    0.00000000000000     0
   -0.03059702461225   -0.02488197050237    0.00000000000000     0
    0.00000000000000    0.00000000000000    0.00000000000000     0
   -0.00595006502754   -0.00703236566260    0.00000000000000     0
   -0.01190013005508   -0.01406473132520    0.00000000000000     0
   -0.01785019508262   -0.02109709698780    0.00000000000000     0
   -0.02380026011016   -0.02812946265041    0.00000000000000     0
    0.00000000000000    0.00000000000000    0.00000000000000     0
   -0.00407008418703   -0.00763056382750    0.00000000000000     0
   -0.00814016837406   -0.01526112765500    0.00000000000000     0
   -0.01221025256110   -0.02289169148250    0.00000000000000     0
   -0.01628033674813   -0.03052225531000    0.00000000000000     0
    0.00000000000000    0.00000000000000    0.00000000000000     0
   -0.00206643589806   -0.00799691117175    0.00000000000000     0
   -0.00413287179613   -0.01599382234351    0.00000000000000     0
   -0.00619930769419   -0.02399073351526    0.00000000000000     0
   -0.00826574359226   -0.03198764468702    0.00000000000000     0
    0.00000000000000    0.00000000000000    0.00000000000000     0
   -0.00000000000000   -0.00812027641669    0.00000000000000     0
   -0.00000000000000   -0.01624055283337    0.00000000000000     0
   -0.00000000000000   -0.02436082925006    0.00000000000000     0
   -0.00000000000000   -0.03248110566674    0.00000000000000     0
    0.00000000000000    0.00000000000000    0.00000000000000     0
    0.00206643589806   -0.00799691117175    0.00000000000000     0
    0.00413287179613   -0.01599382234351    0.00000000000000     0
    0.00619930769419   -0.02399073351526    0.00000000000000     0
    0.00826574359226   -0.03198764468702    0.00000000000000     0
    0.00000000000000    0.00000000000000    0.00000000000000     0
    0.00407008418703   -0.00763056382750    0.00000000000000     0
    0.00814016837406   -0.01526112765500    0.00000000000000     0
    0.01221025256110   -0.02289169148250    0.00000000000000     0
    0.01628033674813   -0.03052225531000    0.00000000000000     0
    0.00000000000000    0.00000000000000    0.00000000000000     0
    0.00595006502754   -0.00703236566260    0.00000000000000     0
    0.01190013005508   -0.01406473132520    0.00000000000000     0
    0.01785019508262   -0.02109709698780    0.00000000000000     0
    0.02380026011016   -0.02812946265041    0.00000000000000     0
    0.00000000000000    0.00000000000000    0.00000000000000     0
    0.00764925615306   -0.00622049262559    0.00000000000000     0
    0.01529851230613   -0.01244098525118    0.00000000000000     0
    0.02294776845919   -0.01866147787678    0.00000000000000     0
    0.03059702461225   -0.02488197050237    0.00000000000000     0
    0.00000000000000    0.00000000000000    0.00000000000000     0
    0.00911602850109   -0.00521961306788    0.00000000000000     0
    0.01823205700217   -0.01043922613575    0.00000000000000     0
    0.02734808550326   -0.01565883920363    0.00000000000000     0
    0.03646411400435   -0.02087845227150    0.00000000000000     0
    0.00000000000000    0.00000000000000    0.00000000000000     0
    0.01030581493604   -0.00406013820834    0.00000000000000     0
    0.02061162987207   -0.00812027641669    0.00000000000000     0
    0.03091744480811   -0.01218041462503    0.00000000000000     0
    0.04122325974415   -0.01624055283337    0.00000000000000     0
    0.00000000000000    0.00000000000000    0.00000000000000     0
    0.01118246439915   -0.00277729810388    0.00000000000000     0
    0.02236492879830   -0.00555459620776    0.00000000000000     0
    0.03354739319745   -0.00833189431164    0.00000000000000     0
    0.04472985759660   -0.01110919241552    0.00000000000000     0
    0.00000000000000    0.00000000000000    0.00000000000000     0
    0.01171934034010   -0.00141007120191    0.00000000000000     0
    0.02343868068019   -0.00282014240382    0.00000000000000     0
    0.03515802102029   -0.00423021360573    0.00000000000000     0
    0.04687736136038   -0.00564028480764    0.00000000000000     0
