 Surf-mp-9920                           
   1.00000000000000000     
     4.9847148210399999    0.0000000000000000   -0.5037243366810000
     0.0000000000000000    3.4014134314370001    0.0000000000000000
     0.0000000000000000    0.0000000000000000   18.1254941257650017
   Ti   S 
     2     6
Direct
  0.7247177588376417  0.2500000000000000  0.4260817355572968
  0.2784996582425876  0.7500000000000000  0.5739182644427032
  0.8977691775008410  0.7500000000000000  0.3420349326163077
  0.4905427727970633  0.7500000000000000  0.3420285454133705
  0.2426603822214304  0.2500000000000000  0.4753920789968475
  0.7605570348588060  0.7500000000000000  0.5246079210031525
  0.5126746442831731  0.2500000000000000  0.6579714545866295
  0.1054482395793954  0.2500000000000000  0.6579650673836923

  0.00000000E+00  0.00000000E+00  0.00000000E+00
  0.00000000E+00  0.00000000E+00  0.00000000E+00
  0.00000000E+00  0.00000000E+00  0.00000000E+00
  0.00000000E+00  0.00000000E+00  0.00000000E+00
  0.00000000E+00  0.00000000E+00  0.00000000E+00
  0.00000000E+00  0.00000000E+00  0.00000000E+00
  0.00000000E+00  0.00000000E+00  0.00000000E+00
  0.00000000E+00  0.00000000E+00  0.00000000E+00
