System = Li7Br3O2_optimization
PREC = Accurate
ENCUT = 520
EDIFF = 1E-06
EDIFFG = -0.01
IBRION = 2
ISIF = 3
ISMEAR = 0
SIGMA = 0.05
NSW = 150
ALGO = Normal
LREAL = .FALSE.
LCHARG = .TRUE.
IVDW = 12
LASPH = .TRUE.
ADDGRID = .TRUE.