Automatic mesh
0
Monkhorst-Pack
4 16 3
0.0 0.0 0.0