Li7Br3O2\(1)
1.0
       15.9312000275         0.0000000000         0.0000000000
        0.0000000000         3.9828000069         0.0000000000
        0.0000000000         0.0000000000        21.7497997284
   Li   Br    O
   55   23   16
Direct
     0.125000000         0.000000000         0.093280002
     0.000000000         0.500000000         0.093280002
     0.000000000         0.500000000         0.406720012
     0.125000000         0.000000000         0.406720012
     0.000000000         0.000000000         0.181020007
     0.125000000         0.500000000         0.318980008
     0.000000000         0.000000000         0.000000000
     0.000000000         0.500000000         0.593280017
     0.125000000         0.000000000         0.593280017
     0.125000000         0.000000000         0.906719983
     0.000000000         0.500000000         0.906719983
     0.125000000         0.500000000         0.681020021
     0.000000000         0.000000000         0.818979979
     0.125000000         0.500000000         0.500000000
     0.375000000         0.000000000         0.093280002
     0.250000000         0.500000000         0.093280002
     0.250000000         0.500000000         0.406720012
     0.375000000         0.000000000         0.406720012
     0.250000000         0.000000000         0.181020007
     0.375000000         0.500000000         0.318980008
     0.250000000         0.000000000         0.000000000
     0.250000000         0.500000000         0.593280017
     0.375000000         0.000000000         0.593280017
     0.375000000         0.000000000         0.906719983
     0.250000000         0.500000000         0.906719983
     0.375000000         0.500000000         0.681020021
     0.250000000         0.000000000         0.818979979
     0.375000000         0.500000000         0.500000000
     0.625000000         0.000000000         0.093280002
     0.500000000         0.500000000         0.093280002
     0.625000000         0.000000000         0.406720012
     0.500000000         0.000000000         0.181020007
     0.625000000         0.500000000         0.318980008
     0.500000000         0.000000000         0.000000000
     0.500000000         0.500000000         0.593280017
     0.625000000         0.000000000         0.593280017
     0.625000000         0.000000000         0.906719983
     0.500000000         0.500000000         0.906719983
     0.625000000         0.500000000         0.681020021
     0.500000000         0.000000000         0.818979979
     0.625000000         0.500000000         0.500000000
     0.875000000         0.000000000         0.093280002
     0.750000000         0.500000000         0.093280002
     0.750000000         0.500000000         0.406720012
     0.875000000         0.000000000         0.406720012
     0.750000000         0.000000000         0.181020007
     0.875000000         0.500000000         0.318980008
     0.750000000         0.000000000         0.000000000
     0.750000000         0.500000000         0.593280017
     0.875000000         0.000000000         0.593280017
     0.875000000         0.000000000         0.906719983
     0.750000000         0.500000000         0.906719983
     0.875000000         0.500000000         0.681020021
     0.750000000         0.000000000         0.818979979
     0.875000000         0.500000000         0.500000000
     0.125000000         0.500000000         0.000000000
     0.125000000         0.500000000         0.189239994
     0.000000000         0.000000000         0.310770005
     0.000000000         0.000000000         0.500000000
     0.000000000         0.000000000         0.689239979
     0.125000000         0.500000000         0.810769975
     0.375000000         0.500000000         0.000000000
     0.375000000         0.500000000         0.189239994
     0.250000000         0.000000000         0.310770005
     0.250000000         0.000000000         0.689239979
     0.375000000         0.500000000         0.810769975
     0.625000000         0.500000000         0.000000000
     0.625000000         0.500000000         0.189239994
     0.500000000         0.000000000         0.310770005
     0.500000000         0.000000000         0.500000000
     0.500000000         0.000000000         0.689239979
     0.625000000         0.500000000         0.810769975
     0.875000000         0.500000000         0.000000000
     0.875000000         0.500000000         0.189239994
     0.750000000         0.000000000         0.310770005
     0.750000000         0.000000000         0.500000000
     0.750000000         0.000000000         0.689239979
     0.875000000         0.500000000         0.810769975
     0.125000000         0.500000000         0.407790005
     0.000000000         0.000000000         0.092210002
     0.000000000         0.000000000         0.907790005
     0.125000000         0.500000000         0.592209995
     0.375000000         0.500000000         0.407790005
     0.250000000         0.000000000         0.092210002
     0.250000000         0.000000000         0.907790005
     0.375000000         0.500000000         0.592209995
     0.625000000         0.500000000         0.407790005
     0.500000000         0.000000000         0.092210002
     0.500000000         0.000000000         0.907790005
     0.625000000         0.500000000         0.592209995
     0.875000000         0.500000000         0.407790005
     0.750000000         0.000000000         0.092210002
     0.750000000         0.000000000         0.907790005
     0.875000000         0.500000000         0.592209995
