Parameters to Generate KPOINTS (Don't Edit This Line):   0.040  0.040   12  147   2  49  98
   159
Reciprocal lattice
    0.00000000000000    0.00000000000000    0.00000000000000     1
    0.11111111111111    0.00000000000000    0.00000000000000     6
    0.22222222222222    0.00000000000000    0.00000000000000     6
    0.33333333333333    0.00000000000000    0.00000000000000     6
    0.44444444444444    0.00000000000000    0.00000000000000     6
    0.11111111111111    0.11111111111111    0.00000000000000     6
    0.22222222222222    0.11111111111111    0.00000000000000    12
    0.33333333333333    0.11111111111111    0.00000000000000    12
    0.44444444444444    0.11111111111111    0.00000000000000     6
    0.22222222222222    0.22222222222222    0.00000000000000     6
    0.33333333333333    0.22222222222222    0.00000000000000    12
    0.33333333333333    0.33333333333333    0.00000000000000     2
    0.00000000000000   -0.50000000000000    0.00000000000000     0
    0.02083333333312    0.48958333333312    0.00000000000000     0
    0.04166666666625    0.47916666666625    0.00000000000000     0
    0.06249999999937    0.46874999999937    0.00000000000000     0
    0.08333333333250    0.45833333333250    0.00000000000000     0
    0.10416666666562    0.44791666666563    0.00000000000000     0
    0.12499999999875    0.43749999999875    0.00000000000000     0
    0.14583333333187    0.42708333333187    0.00000000000000     0
    0.16666666666500    0.41666666666500    0.00000000000000     0
    0.18749999999812    0.40624999999813    0.00000000000000     0
    0.20833333333125    0.39583333333125    0.00000000000000     0
    0.22916666666437    0.38541666666438    0.00000000000000     0
    0.24999999999750    0.37499999999750    0.00000000000000     0
    0.27083333333062    0.36458333333062    0.00000000000000     0
    0.29166666666375    0.35416666666375    0.00000000000000     0
    0.31249999999687    0.34374999999687    0.00000000000000     0
    0.33333333333000    0.33333333333000    0.00000000000000     0
    0.35416666666312    0.32291666666312    0.00000000000000     0
    0.37499999999625    0.31249999999625    0.00000000000000     0
    0.39583333332937    0.30208333332938    0.00000000000000     0
    0.41666666666250    0.29166666666250    0.00000000000000     0
    0.43749999999563    0.28124999999562    0.00000000000000     0
    0.45833333332875    0.27083333332875    0.00000000000000     0
    0.47916666666187    0.26041666666188    0.00000000000000     0
    0.49999999999500    0.24999999999500    0.00000000000000     0
   -0.47916666667188    0.23958333332812    0.00000000000000     0
   -0.45833333333875    0.22916666666125    0.00000000000000     0
   -0.43750000000563    0.21874999999437    0.00000000000000     0
   -0.41666666667250    0.20833333332750    0.00000000000000     0
   -0.39583333333937    0.19791666666062    0.00000000000000     0
   -0.37500000000625    0.18749999999375    0.00000000000000     0
   -0.35416666667313    0.17708333332688    0.00000000000000     0
   -0.33333333334000    0.16666666666000    0.00000000000000     0
   -0.31250000000688    0.15624999999312    0.00000000000000     0
   -0.29166666667375    0.14583333332625    0.00000000000000     0
   -0.27083333334063    0.13541666665938    0.00000000000000     0
   -0.25000000000750    0.12499999999250    0.00000000000000     0
   -0.22916666667438    0.11458333332562    0.00000000000000     0
   -0.20833333334125    0.10416666665875    0.00000000000000     0
   -0.18750000000813    0.09374999999187    0.00000000000000     0
   -0.16666666667500    0.08333333332500    0.00000000000000     0
   -0.14583333334188    0.07291666665812    0.00000000000000     0
   -0.12500000000875    0.06249999999125    0.00000000000000     0
   -0.10416666667563    0.05208333332437    0.00000000000000     0
   -0.08333333334250    0.04166666665750    0.00000000000000     0
   -0.06250000000937    0.03124999999062    0.00000000000000     0
   -0.04166666667625    0.02083333332375    0.00000000000000     0
   -0.02083333334313    0.01041666665687    0.00000000000000     0
   -0.00000000001000   -0.00000000001000    0.00000000000000     0
   -0.00000000001000   -0.00000000001000    0.00000000000000     0
   -0.01030927836041   -0.01030927836041    0.00000000000000     0
   -0.02061855671082   -0.02061855671082    0.00000000000000     0
   -0.03092783506124   -0.03092783506124    0.00000000000000     0
   -0.04123711341165   -0.04123711341165    0.00000000000000     0
   -0.05154639176206   -0.05154639176206    0.00000000000000     0
   -0.06185567011247   -0.06185567011247    0.00000000000000     0
   -0.07216494846289   -0.07216494846289    0.00000000000000     0
   -0.08247422681330   -0.08247422681330    0.00000000000000     0
   -0.09278350516371   -0.09278350516371    0.00000000000000     0
   -0.10309278351412   -0.10309278351412    0.00000000000000     0
   -0.11340206186454   -0.11340206186454    0.00000000000000     0
   -0.12371134021495   -0.12371134021495    0.00000000000000     0
   -0.13402061856536   -0.13402061856536    0.00000000000000     0
   -0.14432989691577   -0.14432989691577    0.00000000000000     0
   -0.15463917526619   -0.15463917526619    0.00000000000000     0
   -0.16494845361660   -0.16494845361660    0.00000000000000     0
   -0.17525773196701   -0.17525773196701    0.00000000000000     0
   -0.18556701031742   -0.18556701031742    0.00000000000000     0
   -0.19587628866784   -0.19587628866784    0.00000000000000     0
   -0.20618556701825   -0.20618556701825    0.00000000000000     0
   -0.21649484536866   -0.21649484536866    0.00000000000000     0
   -0.22680412371907   -0.22680412371907    0.00000000000000     0
   -0.23711340206948   -0.23711340206948    0.00000000000000     0
   -0.24742268041990   -0.24742268041990    0.00000000000000     0
   -0.25773195877031   -0.25773195877031    0.00000000000000     0
   -0.26804123712072   -0.26804123712072    0.00000000000000     0
   -0.27835051547113   -0.27835051547113    0.00000000000000     0
   -0.28865979382155   -0.28865979382155    0.00000000000000     0
   -0.29896907217196   -0.29896907217196    0.00000000000000     0
   -0.30927835052237   -0.30927835052237    0.00000000000000     0
   -0.31958762887278   -0.31958762887278    0.00000000000000     0
   -0.32989690722320   -0.32989690722320    0.00000000000000     0
   -0.34020618557361   -0.34020618557361    0.00000000000000     0
   -0.35051546392402   -0.35051546392402    0.00000000000000     0
   -0.36082474227443   -0.36082474227443    0.00000000000000     0
   -0.37113402062485   -0.37113402062485    0.00000000000000     0
   -0.38144329897526   -0.38144329897526    0.00000000000000     0
   -0.39175257732567   -0.39175257732567    0.00000000000000     0
   -0.40206185567608   -0.40206185567608    0.00000000000000     0
   -0.41237113402649   -0.41237113402649    0.00000000000000     0
   -0.42268041237691   -0.42268041237691    0.00000000000000     0
   -0.43298969072732   -0.43298969072732    0.00000000000000     0
   -0.44329896907773   -0.44329896907773    0.00000000000000     0
   -0.45360824742814   -0.45360824742814    0.00000000000000     0
   -0.46391752577856   -0.46391752577856    0.00000000000000     0
   -0.47422680412897   -0.47422680412897    0.00000000000000     0
   -0.48453608247938   -0.48453608247938    0.00000000000000     0
   -0.49484536082979   -0.49484536082979    0.00000000000000     0
    0.49484536081979    0.49484536081979    0.00000000000000     0
    0.48453608246938    0.48453608246938    0.00000000000000     0
    0.47422680411897    0.47422680411897    0.00000000000000     0
    0.46391752576856    0.46391752576856    0.00000000000000     0
    0.45360824741814    0.45360824741814    0.00000000000000     0
    0.44329896906773    0.44329896906773    0.00000000000000     0
    0.43298969071732    0.43298969071732    0.00000000000000     0
    0.42268041236691    0.42268041236691    0.00000000000000     0
    0.41237113401649    0.41237113401649    0.00000000000000     0
    0.40206185566608    0.40206185566608    0.00000000000000     0
    0.39175257731567    0.39175257731567    0.00000000000000     0
    0.38144329896526    0.38144329896526    0.00000000000000     0
    0.37113402061485    0.37113402061485    0.00000000000000     0
    0.36082474226443    0.36082474226443    0.00000000000000     0
    0.35051546391402    0.35051546391402    0.00000000000000     0
    0.34020618556361    0.34020618556361    0.00000000000000     0
    0.32989690721320    0.32989690721320    0.00000000000000     0
    0.31958762886278    0.31958762886278    0.00000000000000     0
    0.30927835051237    0.30927835051237    0.00000000000000     0
    0.29896907216196    0.29896907216196    0.00000000000000     0
    0.28865979381155    0.28865979381155    0.00000000000000     0
    0.27835051546113    0.27835051546113    0.00000000000000     0
    0.26804123711072    0.26804123711072    0.00000000000000     0
    0.25773195876031    0.25773195876031    0.00000000000000     0
    0.24742268040990    0.24742268040990    0.00000000000000     0
    0.23711340205948    0.23711340205948    0.00000000000000     0
    0.22680412370907    0.22680412370907    0.00000000000000     0
    0.21649484535866    0.21649484535866    0.00000000000000     0
    0.20618556700825    0.20618556700825    0.00000000000000     0
    0.19587628865784    0.19587628865784    0.00000000000000     0
    0.18556701030742    0.18556701030742    0.00000000000000     0
    0.17525773195701    0.17525773195701    0.00000000000000     0
    0.16494845360660    0.16494845360660    0.00000000000000     0
    0.15463917525619    0.15463917525619    0.00000000000000     0
    0.14432989690577    0.14432989690577    0.00000000000000     0
    0.13402061855536    0.13402061855536    0.00000000000000     0
    0.12371134020495    0.12371134020495    0.00000000000000     0
    0.11340206185454    0.11340206185454    0.00000000000000     0
    0.10309278350412    0.10309278350412    0.00000000000000     0
    0.09278350515371    0.09278350515371    0.00000000000000     0
    0.08247422680330    0.08247422680330    0.00000000000000     0
    0.07216494845289    0.07216494845289    0.00000000000000     0
    0.06185567010247    0.06185567010247    0.00000000000000     0
    0.05154639175206    0.05154639175206    0.00000000000000     0
    0.04123711340165    0.04123711340165    0.00000000000000     0
    0.03092783505124    0.03092783505124    0.00000000000000     0
    0.02061855670082    0.02061855670082    0.00000000000000     0
    0.01030927835041    0.01030927835041    0.00000000000000     0
    0.00000000000000    0.00000000000000    0.00000000000000     0
